$molecule
0 1
C        1.8704999611   -0.1397423187   -0.1564829143
C        0.5361763409    0.5353771060    0.1550835221
H        2.1206620263   -0.8948725599    0.5921947668
H        2.6842257457    0.5868627805   -0.1785735764
H        1.8340825041   -0.6334743044   -1.1294257960
H        0.5937073907    1.0964381616    1.0897630230
C       -0.6220247440   -0.4577606415    0.2100731915
H        0.3037660522    1.2572615507   -0.6303823609
H       -0.7598762632   -0.8549356835    1.2187348927
H       -0.4140409198   -1.3044021291   -0.4498357279
O       -1.8589056546    0.1886582551   -0.1954006270
H       -2.1850680561   -0.3006087955   -0.9799387400
$end

$rem
jobtype               opt
exchange              hf
correlation           rimp2
basis                 6-31g*
basis2                r64g
aux_basis             rimp2-vdz
dual_basis_energy     true
n_frozen_core         fc
mem_static            800
geom_opt_max_cycles   150
$end

$opt
constraint
tors 1 2 7 11 -150
tors 2 7 11 12 105
endconstraint
$end

