$molecule
0 1
C        1.4929962026   -0.5445473634    0.0640108576
C        0.6526448863    0.6817558125   -0.2762284428
H        1.5830389049   -0.6699413299    1.1450575162
H        2.4983675802   -0.4520435023   -0.3499038771
H        1.0291923070   -1.4425013674   -0.3396142101
H        1.1264809228    1.5943577362    0.0972731338
C       -0.7543513051    0.5986907695    0.2986694237
H        0.5880304075    0.7806247327   -1.3633596875
H       -1.3947736816    1.3774428381   -0.1221673079
H       -0.7231204240    0.7432121509    1.3824366328
O       -1.3181088723   -0.7200399746    0.0662200578
H       -2.1284534726   -0.5904822169   -0.4716307231
$end

$rem
jobtype               opt
exchange              hf
correlation           rimp2
basis                 6-31g*
basis2                r64g
aux_basis             rimp2-vdz
dual_basis_energy     true
n_frozen_core         fc
mem_static            800
geom_opt_max_cycles   150
$end

$opt
constraint
tors 1 2 7 11 -60
tors 2 7 11 12 -120
endconstraint
$end

