$molecule
0 1
C        1.7078659650   -0.4118186196    0.0020056162
C        0.5909591027    0.5820884418   -0.3022922165
H        2.0179286171   -0.3324642498    1.0455062275
H        2.5836988598   -0.2319533259   -0.6237644351
H        1.3690897708   -1.4343892251   -0.1732897755
H        0.9536302604    1.5957436406   -0.1057131286
C       -0.6656868238    0.3265259071    0.5299034098
H        0.3159858421    0.5449661428   -1.3584433784
H       -1.1831603118    1.2626247651    0.7578018970
H       -0.4134681074   -0.1508222185    1.4778635556
O       -1.5754382041   -0.5848435061   -0.1397406315
H       -2.1689986184   -0.0204849555   -0.6813426786
$end

$rem
jobtype               opt
exchange              hf
correlation           rimp2
basis                 6-31g*
basis2                r64g
aux_basis             rimp2-vdz
dual_basis_energy     true
n_frozen_core         fc
mem_static            800
geom_opt_max_cycles   150
$end

$opt
constraint
tors 1 2 7 11 -90
tors 2 7 11 12 -75
endconstraint
$end

