$molecule
0 1
C        1.7768748628   -0.2227366484   -0.2721354164
C        0.5756228787    0.5843315298    0.2137841806
H        2.1025152869   -0.9306350535    0.4923934959
H        2.6221669952    0.4251589363   -0.5105079452
H        1.5211886895   -0.7895930614   -1.1691227476
H        0.8611256159    1.1467451805    1.1071732221
C       -0.6466417048   -0.2936498326    0.5159317657
H        0.2824834253    1.3169919345   -0.5404001636
H       -1.0785061645   -0.0531726922    1.4911005880
H       -0.3693183287   -1.3486129016    0.5320952766
O       -1.6641184156   -0.1828256903   -0.5131493488
H       -2.2509553104    0.5534439635   -0.2339405841
$end

$rem
jobtype               opt
exchange              hf
correlation           rimp2
basis                 6-31g*
basis2                r64g
aux_basis             rimp2-vdz
dual_basis_energy     true
n_frozen_core         fc
mem_static            800
geom_opt_max_cycles   150
$end

$opt
constraint
tors 1 2 7 11 -120
tors 2 7 11 12 -90
endconstraint
$end

