$molecule
0 1
C        1.5931125383   -0.4809761403   -0.1402009621
C        0.6113181538    0.5829752660    0.3412519625
H        1.1721157735   -1.4775637080   -0.0027690710
H        2.5344972633   -0.4283493262    0.4092611232
H        1.8147296439   -0.3485685095   -1.2010075506
H        0.4286774792    0.4895986496    1.4132351740
C       -0.7267320651    0.5027256202   -0.3684850820
H        1.0363714472    1.5767524866    0.1709654875
H       -0.5921757602    0.3887785739   -1.4498155947
H       -1.3039722061    1.4161900860   -0.1921427645
O       -1.4348156390   -0.6378459486    0.1792454847
H       -2.3729070782   -0.5401891520   -0.0985726412
$end

$rem
jobtype               opt
exchange              hf
correlation           rimp2
basis                 6-31g*
basis2                r64g
aux_basis             rimp2-vdz
dual_basis_energy     true
n_frozen_core         fc
mem_static            800
geom_opt_max_cycles   150
$end

$opt
constraint
tors 1 2 7 11 90
tors 2 7 11 12 165
endconstraint
$end

