$molecule
0 1
C        1.7975943009   -0.2410604466    0.2412497089
C        0.5662161393    0.5539485404   -0.1862454365
H        1.5899122519   -0.8118818605    1.1481655214
H        2.6430293520    0.4187002673    0.4439387039
H        2.1025901559   -0.9442271340   -0.5365592223
H        0.2859763587    1.2591152691    0.5980044360
C       -0.6544703990   -0.3296259873   -0.4481130048
H        0.7999906908    1.1460408901   -1.0736545529
H       -0.4155356058   -1.3842796554   -0.2734893747
H       -1.0035495697   -0.2346560980   -1.4813243206
O       -1.6966917499    0.0947638502    0.4665425174
H       -2.4728641141   -0.4825986070    0.2850264649
$end

$rem
jobtype               opt
exchange              hf
correlation           rimp2
basis                 6-31g*
basis2                r64g
aux_basis             rimp2-vdz
dual_basis_energy     true
n_frozen_core         fc
mem_static            800
geom_opt_max_cycles   150
$end

$opt
constraint
tors 1 2 7 11 135
tors 2 7 11 12 180
endconstraint
$end

