$molecule
0 1
C        1.6744679244   -0.4161562374   -0.1104189029
C        0.5803169848    0.5229000125    0.3891086538
H        1.3210606931   -1.4487641774   -0.1158956250
H        2.5628493566   -0.3650545741    0.5214235552
H        1.9699929122   -0.1543447504   -1.1280425561
H        0.3233993352    0.3055182262    1.4273944000
C       -0.6965993399    0.4325485861   -0.4446732214
H        0.9559634462    1.5504559971    0.3623908774
H       -0.4701617637    0.1386445625   -1.4716137806
H       -1.2064461571    1.3984908087   -0.4826748694
O       -1.5956070799   -0.5763013350    0.0913719486
H       -2.3158079605   -0.0888183328    0.5450028526
$end

$rem
jobtype               opt
exchange              hf
correlation           rimp2
basis                 6-31g*
basis2                r64g
aux_basis             rimp2-vdz
dual_basis_energy     true
n_frozen_core         fc
mem_static            800
geom_opt_max_cycles   150
$end

$opt
constraint
tors 1 2 7 11 90
tors 2 7 11 12 90
endconstraint
$end

