$molecule
0 1
C        1.5011455587   -0.5155395888    0.1215333576
C        0.6134303218    0.6491933381   -0.3086890575
H        1.6537126562   -0.5018722543    1.2021509191
H        2.4790350508   -0.4650208430   -0.3595865533
H        1.0434220344   -1.4712750282   -0.1344140172
H        1.0752071758    1.5993523747   -0.0251843537
C       -0.7781610955    0.5858142542    0.2999934705
H        0.5180073777    0.6687321347   -1.3995725307
H       -1.3616680145    1.4611757120   -0.0048882361
H       -0.7257392341    0.5744380196    1.3900015713
O       -1.4945932595   -0.6187005258   -0.0667277701
H       -1.1615563789   -0.8714034236   -0.9565871658
$end

$rem
jobtype               opt
exchange              hf
correlation           rimp2
basis                 6-31g*
basis2                r64g
aux_basis             rimp2-vdz
dual_basis_energy     true
n_frozen_core         fc
mem_static            800
geom_opt_max_cycles   150
$end

$opt
constraint
tors 1 2 7 11 -45
tors 2 7 11 12 -30
endconstraint
$end

