$molecule
0 1
C        1.8874279323   -0.1199366571   -0.0471636177
C        0.5024689425    0.5165250003    0.0487987876
H        2.0885260355   -0.7618206600    0.8131659582
H        2.6684566345    0.6406269076   -0.0856151168
H        1.9679653394   -0.7314324239   -0.9474998775
H        0.4437676696    1.1675445286    0.9261515658
C       -0.6071362452   -0.5229085928    0.1084137090
H        0.3210308277    1.1434754787   -0.8271433342
H       -0.5964128632   -1.0510665598    1.0682567068
H       -0.4749595062   -1.2626760110   -0.6818968766
O       -1.9115774882    0.0465961046   -0.1482469460
H       -2.0481125786    0.7247665432    0.5516247707
$end

$rem
jobtype               opt
exchange              hf
correlation           rimp2
basis                 6-31g*
basis2                r64g
aux_basis             rimp2-vdz
dual_basis_energy     true
n_frozen_core         fc
mem_static            800
geom_opt_max_cycles   150
$end

$opt
constraint
tors 1 2 7 11 -150
tors 2 7 11 12 -60
endconstraint
$end

