$molecule
0 1
C        1.4235646657   -0.5927225914    0.0184673113
C        0.6943202707    0.7389055719   -0.1369018400
H        1.2936655016   -1.0015008357    1.0207064757
H        2.4913910653   -0.4604281330   -0.1641971690
H        1.0444661042   -1.3303273698   -0.6866963479
H        1.1331950946    1.4894922322    0.5244725513
C       -0.8165202993    0.6481021619    0.1496905759
H        0.8549436674    1.1024281972   -1.1559514159
H       -1.3908968038    1.2602166326   -0.5499979305
H       -1.0238020265    1.0201081193    1.1537592413
O       -1.3218273410   -0.7102750210    0.1723104289
H       -1.5973573225   -0.9205154566   -0.7474855161
$end

$rem
jobtype               opt
exchange              hf
correlation           rimp2
basis                 6-31g*
basis2                r64g
aux_basis             rimp2-vdz
dual_basis_energy     true
n_frozen_core         fc
mem_static            800
geom_opt_max_cycles   150
$end

$opt
constraint
tors 1 2 7 11 -30
tors 2 7 11 12 -90
endconstraint
$end

