$molecule
0 1
C        1.4340835148   -0.5621352696    0.0048993071
C        0.6654134931    0.7589728560   -0.0082982167
H        1.1685424107   -1.1736920385    0.8687127041
H        2.5060504084   -0.3673384244    0.0556370882
H        1.2604445266   -1.1450458124   -0.9026261613
H        0.9643050420    1.3393454747    0.8668224481
C       -0.8774072740    0.6286617878   -0.0228699858
H        0.9829471298    1.3353701740   -0.8796855325
H       -1.2808960564    1.1392669997   -0.9016102134
H       -1.3052246408    1.1069251861    0.8593935653
O       -1.4024563692   -0.7218347713   -0.0222345703
H       -0.6648946660   -1.3228052916   -0.2543109152
$end

$rem
jobtype               opt
exchange              hf
correlation           rimp2
basis                 6-31g*
basis2                r64g
aux_basis             rimp2-vdz
dual_basis_energy     true
n_frozen_core         fc
mem_static            800
geom_opt_max_cycles   150
$end

$opt
constraint
tors 1 2 7 11 0
tors 2 7 11 12 0
endconstraint
$end

