$molecule
0 1
C        1.8911580178   -0.1161569458    0.0076666709
C        0.5000082849    0.5123974027   -0.0165768792
H        2.0363993715   -0.7049062202    0.9152276287
H        2.6680505708    0.6487154200   -0.0249173321
H        2.0340661496   -0.7774864014   -0.8487548863
H        0.3869151987    1.1890228648    0.8363146389
C       -0.6050463798   -0.5286879926    0.0394538316
H        0.3727797243    1.1113248011   -0.9224491718
H       -0.5031302637   -1.1314853463    0.9476885163
H       -0.5445517301   -1.1998474302   -0.8200082593
O       -1.9300772994    0.0577873598    0.0169580371
H       -1.8113630461    1.0123520815    0.2140286084
$end

$rem
jobtype               opt
exchange              hf
correlation           rimp2
basis                 6-31g*
basis2                r64g
aux_basis             rimp2-vdz
dual_basis_energy     true
n_frozen_core         fc
mem_static            800
geom_opt_max_cycles   150
$end

$opt
constraint
tors 1 2 7 11 180
tors 2 7 11 12 0
endconstraint
$end

