$molecule
0 1
C        1.4498453439   -0.5530522482   -0.0307599476
C        0.6729326763    0.7625869467    0.0156862150
H        1.2780546088   -1.1632244308    0.8592079321
H        2.5209432718   -0.3511251988   -0.0715693398
H        1.1832708637   -1.1414384231   -0.9091844992
H        0.9626836148    1.3118558356    0.9139940811
C       -0.8674639393    0.6146504648   -0.0182394426
H        0.9882931895    1.3756377532   -0.8311171858
H       -1.2827672764    1.1060473737   -0.8979033893
H       -1.3025775581    1.0952004353    0.8635498464
O       -1.3641129808   -0.7437301969   -0.0890978034
H       -0.7058820969   -1.3099437474    0.3665965424
$end

$rem
jobtype               opt
exchange              hf
correlation           rimp2
basis                 6-31g*
basis2                r64g
aux_basis             rimp2-vdz
dual_basis_energy     true
n_frozen_core         fc
mem_static            800
geom_opt_max_cycles   150
$end

$opt
constraint
tors 1 2 7 11 15
tors 2 7 11 12 30
endconstraint
$end

