$molecule
0 1
C        1.6007461815   -0.4568156190   -0.1776412323
C        0.6069768867    0.5602707835    0.3765860072
H        1.1865988700   -1.4652108730   -0.1309050625
H        2.5376592264   -0.4453552690    0.3815023624
H        1.8271837913   -0.2367273010   -1.2220797433
H        0.4426794332    0.4026121080    1.4475523712
C       -0.7371240407    0.5192488834   -0.3358963283
H        1.0232406668    1.5674441249    0.2802099580
H       -0.6080406640    0.4471110189   -1.4167449733
H       -1.3029306650    1.4321641935   -0.1203847996
O       -1.5381688032   -0.6262883761    0.0471949744
H       -1.2857950913   -0.8335588985    0.9739802278
$end

$rem
jobtype               opt
exchange              hf
correlation           rimp2
basis                 6-31g*
basis2                r64g
aux_basis             rimp2-vdz
dual_basis_energy     true
n_frozen_core         fc
mem_static            800
geom_opt_max_cycles   150
$end

$opt
constraint
tors 1 2 7 11 75
tors 2 7 11 12 45
endconstraint
$end

