$molecule
0 1
C        1.4463947738   -0.5924743895    0.0378843209
C        0.6869575297    0.7176055278   -0.1455190081
H        1.3630759686   -0.9625230895    1.0619422857
H        2.5060940144   -0.4512253047   -0.1812815349
H        1.0494832107   -1.3570507477   -0.6260685282
H        1.1211290167    1.5098718896    0.4700473300
C       -0.8073414055    0.6055559136    0.1774364507
H        0.8033802959    1.0372525359   -1.1841380012
H       -1.3881682097    1.3136185577   -0.4178868239
H       -0.9767470435    0.8457286753    1.2302023821
O       -1.3088905718   -0.7300124505   -0.0945450904
H       -1.6524839552   -1.0780341960    0.7550554984
$end

$rem
jobtype               opt
exchange              hf
correlation           rimp2
basis                 6-31g*
basis2                r64g
aux_basis             rimp2-vdz
dual_basis_energy     true
n_frozen_core         fc
mem_static            800
geom_opt_max_cycles   150
$end

$opt
constraint
tors 1 2 7 11 -45
tors 2 7 11 12 120
endconstraint
$end

