$molecule
0 1
C        1.9021289027   -0.1366583764   -0.0539897323
C        0.5373825612    0.5366894014    0.0711004700
H        2.0859482063   -0.8209825585    0.7773204768
H        2.7053905928    0.6014947144   -0.0608307878
H        1.9661739093   -0.7110955326   -0.9800605829
H        0.4883655708    1.1509381824    0.9730601511
C       -0.6018952658   -0.4683333340    0.0805301173
H        0.3742429321    1.2059777246   -0.7762451312
H       -0.6269992715   -1.0236444528    1.0218149638
H       -0.4680977058   -1.1935697766   -0.7270694211
O       -1.8603505575    0.2166474227   -0.1554300478
H       -2.4259526114    0.0520423463    0.6289503255
$end

$rem
jobtype               opt
exchange              hf
correlation           rimp2
basis                 6-31g*
basis2                r64g
aux_basis             rimp2-vdz
dual_basis_energy     true
n_frozen_core         fc
mem_static            800
geom_opt_max_cycles   150
$end

$opt
constraint
tors 1 2 7 11 -150
tors 2 7 11 12 -120
endconstraint
$end

