$molecule
0 1
C        1.8805281096   -0.1205292204    0.1081167516
C        0.5079038640    0.5046943212   -0.1320086248
H        1.9221913610   -0.5976471107    1.0889647284
H        2.6692175661    0.6319061259    0.0658726468
H        2.1045325638   -0.8808244070   -0.6430092609
H        0.3160263693    1.2483058520    0.6479846399
C       -0.6116371355   -0.5276266607   -0.0916193529
H        0.4783834334    1.0376259629   -1.0843676035
H       -0.4450735796   -1.2260455424    0.7366317392
H       -0.6492427508   -1.1073730906   -1.0139715494
O       -1.9197846087    0.0756045164    0.0297146392
H       -1.8979825066    0.5817633280    0.8726159252
$end

$rem
jobtype               opt
exchange              hf
correlation           rimp2
basis                 6-31g*
basis2                r64g
aux_basis             rimp2-vdz
dual_basis_energy     true
n_frozen_core         fc
mem_static            800
geom_opt_max_cycles   150
$end

$opt
constraint
tors 1 2 7 11 180
tors 2 7 11 12 -60
endconstraint
$end

