$molecule
0 1
C        1.4316033452   -0.5946329965   -0.0484277098
C        0.6977068118    0.7399879393    0.0580061877
H        1.1060775148   -1.2789431279    0.7322596508
H        2.5065546437   -0.4348074395    0.0530618467
H        1.2465686697   -1.0758572404   -1.0089415949
H        0.9340972013    1.1843946032    1.0278029430
C       -0.8274485864    0.6286575215   -0.0871163795
H        1.0742817692    1.4361039961   -0.6949267479
H       -1.1340746144    0.9816748013   -1.0766568006
H       -1.3382685966    1.2477594157    0.6568007797
O       -1.2257964820   -0.7571777544    0.0606488235
H       -2.1474956783   -0.8073551920   -0.2779413303
$end

$rem
jobtype               opt
exchange              hf
correlation           rimp2
basis                 6-31g*
basis2                r64g
aux_basis             rimp2-vdz
dual_basis_energy     true
n_frozen_core         fc
mem_static            800
geom_opt_max_cycles   150
$end

$opt
constraint
tors 1 2 7 11 15
tors 2 7 11 12 -150
endconstraint
$end

