$molecule
0 1
C       -1.7986044355    0.0754473108    0.3253142349
C       -0.5604671017   -0.3736501257   -0.4483946768
H       -1.5970363421    0.0880405101    1.3977213717
H       -2.6430771513   -0.5918425475    0.1452820924
H       -2.0984471350    1.0820016195    0.0282685055
H       -0.3148845776   -1.3987432468   -0.1550129096
C        0.6595428066    0.5277335953   -0.1983398821
H       -0.7865953509   -0.4111231246   -1.5164622300
H        0.4105991900    1.3217561974    0.5088304339
H        0.9820753834    1.0025327858   -1.1294731101
O        1.8010831949   -0.1637733244    0.3705716568
H        1.6341445238   -1.1231070033    0.2543838414
$end

$rem
jobtype               opt
exchange              hf
correlation           rimp2
basis                 6-31g*
basis2                r64g
aux_basis             rimp2-vdz
dual_basis_energy     true
n_frozen_core         fc
mem_static            800
geom_opt_max_cycles   150
$end

$opt
constraint
tors 1 2 7 11 135
tors 2 7 11 12 15
endconstraint
$end

