$molecule
0 1
C        1.8712776550   -0.1431613247   -0.1510229593
C        0.5353736292    0.5346687720    0.1468990911
H        2.1195649741   -0.8884888501    0.6080691007
H        2.6839494716    0.5844287019   -0.1789907223
H        1.8389407484   -0.6486775509   -1.1179880433
H        0.5895578873    1.1071982723    1.0748994991
C       -0.6200331986   -0.4587019332    0.2087184288
H        0.3033468205    1.2449005497   -0.6489216334
H       -0.7540351476   -0.8588797120    1.2179195062
H       -0.4108172715   -1.3022845225   -0.4553379493
O       -1.8430248159    0.2021104217   -0.2131951382
H       -2.2959071457   -0.4144233441   -0.8272912136
$end

$rem
jobtype               opt
exchange              hf
correlation           rimp2
basis                 6-31g*
basis2                r64g
aux_basis             rimp2-vdz
dual_basis_energy     true
n_frozen_core         fc
mem_static            800
geom_opt_max_cycles   150
$end

$opt
constraint
tors 1 2 7 11 -150
tors 2 7 11 12 150
endconstraint
$end

