$molecule
0 1
C        1.8938724824   -0.1181978983   -0.0092788741
C        0.5065065262    0.5179919695    0.0292792500
H        2.0496530505   -0.7636162607    0.8570088301
H        2.6749808273    0.6430592999   -0.0057982121
H        2.0191351288   -0.7251143360   -0.9077756009
H        0.4023495569    1.1410025936    0.9217645523
C       -0.6042763063   -0.5184665963    0.0248152549
H        0.3774863190    1.1727428562   -0.8382917400
H       -0.5275545145   -1.1675442484    0.8997875934
H       -0.5253854235   -1.1450148330   -0.8695551538
O       -1.9258302064    0.0751420566    0.0612597726
H       -1.8072932266    1.0236603063   -0.1631898203
$end

$rem
jobtype               opt
exchange              hf
correlation           rimp2
basis                 6-31g*
basis2                r64g
aux_basis             rimp2-vdz
dual_basis_energy     true
n_frozen_core         fc
mem_static            800
geom_opt_max_cycles   150
$end

$opt
constraint
tors 1 2 7 11 180
tors 2 7 11 12 30
endconstraint
$end

