$molecule
0 1
C        1.7749268012   -0.1380720878   -0.3313834206
C        0.5770115118    0.4847595443    0.3814150851
H        2.0904346293   -1.0561041205    0.1681316555
H        2.6264611346    0.5444650570   -0.3455593053
H        1.5234037200   -0.3861061112   -1.3641361510
H        0.8645251480    0.7403405386    1.4046636630
C       -0.6497749075   -0.4308659959    0.4041876100
H        0.2799398379    1.4139923092   -0.1064834718
H       -1.0960032825   -0.4506674375    1.4014677885
H       -0.3797788685   -1.4584925831    0.1433325488
O       -1.6266418727    0.0533012114   -0.5583396703
H       -2.4986816376    0.0288814978   -0.1095409194
$end

$rem
jobtype               opt
exchange              hf
correlation           rimp2
basis                 6-31g*
basis2                r64g
aux_basis             rimp2-vdz
dual_basis_energy     true
n_frozen_core         fc
mem_static            800
geom_opt_max_cycles   150
$end

$opt
constraint
tors 1 2 7 11 -105
tors 2 7 11 12 -150
endconstraint
$end

