$molecule
0 1
C        1.6567293343   -0.4536474417   -0.1064686523
C        0.6143775732    0.5635779103    0.3480955095
H        1.2728961640   -1.4695849286    0.0043864390
H        2.5737325528   -0.3746289454    0.4798733215
H        1.9149251866   -0.2999570285   -1.1561072396
H        0.3946489964    0.4531236303    1.4112885751
C       -0.7005663099    0.4384888245   -0.4081988882
H        1.0128565511    1.5725962938    0.2070331749
H       -0.5289101735    0.0994621186   -1.4332480003
H       -1.2166054322    1.4019212936   -0.4564348363
O       -1.5563585570   -0.4925596382    0.3098167882
H       -1.9485661581   -1.0952314647   -0.3585357292
$end

$rem
jobtype               opt
exchange              hf
correlation           rimp2
basis                 6-31g*
basis2                r64g
aux_basis             rimp2-vdz
dual_basis_energy     true
n_frozen_core         fc
mem_static            800
geom_opt_max_cycles   150
$end

$opt
constraint
tors 1 2 7 11 105
tors 2 7 11 12 -135
endconstraint
$end

