$molecule
0 1
C        1.4422175692   -0.5757230571   -0.0850524369
C        0.6739633619    0.7225604331    0.1471410550
H        1.0573415368   -1.3661872629    0.5552041829
H        2.5013198716   -0.4304818776    0.1346236636
H        1.3531422002   -0.9109440901   -1.1198270884
H        0.7879976265    1.0059761571    1.1965436436
C       -0.8138394217    0.6138547870   -0.1802839647
H        1.1016243529    1.5369489544   -0.4431242862
H       -0.9877067995    0.8587640190   -1.2340808851
H       -1.3937765340    1.3164439316    0.4254398422
O       -1.2456040717   -0.7485562944    0.0586817789
H       -2.2284956741   -0.7213526114    0.0765041045
$end

$rem
jobtype               opt
exchange              hf
correlation           rimp2
basis                 6-31g*
basis2                r64g
aux_basis             rimp2-vdz
dual_basis_energy     true
n_frozen_core         fc
mem_static            800
geom_opt_max_cycles   150
$end

$opt
constraint
tors 1 2 7 11 45
tors 2 7 11 12 165
endconstraint
$end

