$molecule
0 1
C        1.4824917002   -0.5206809637    0.0869889245
C        0.6465640536    0.7220602441   -0.2136599983
H        1.3825236165   -0.8292129076    1.1308764035
H        2.5395895374   -0.3265984733   -0.0991308977
H        1.1934927631   -1.3570709906   -0.5509711057
H        1.0626804365    1.5895909001    0.3051699124
C       -0.8208065075    0.5858824370    0.1895760403
H        0.7082083491    0.9332764787   -1.2841433697
H       -1.4312094096    1.3540601606   -0.2846816798
H       -0.9090057173    0.7074491565    1.2758859381
O       -1.4229197043   -0.6709572471   -0.1918467446
H       -0.7736757603   -1.3670544670    0.0481835382
$end

$rem
jobtype               opt
exchange              hf
correlation           rimp2
basis                 6-31g*
basis2                r64g
aux_basis             rimp2-vdz
dual_basis_energy     true
n_frozen_core         fc
mem_static            800
geom_opt_max_cycles   150
$end

$opt
constraint
tors 1 2 7 11 -60
tors 2 7 11 12 45
endconstraint
$end

