$molecule
0 1
C        1.4898586920   -0.5447863368    0.0820863997
C        0.6510690830    0.6789896104   -0.2732302073
H        1.5590457663   -0.6724345293    1.1644120101
H        2.5027930571   -0.4448308626   -0.3113073236
H        1.0407286366   -1.4444161444   -0.3339850480
H        1.1183875262    1.5934896326    0.1030093957
C       -0.7628328512    0.5983218350    0.2786087124
H        0.5983315193    0.7719673807   -1.3608907821
H       -1.3976460170    1.3593727718   -0.1838222195
H       -0.7600197853    0.7739077843    1.3601937105
O       -1.2814695184   -0.7315596801    0.0207847340
H       -2.2537417593   -0.6349503473   -0.0819299472
$end

$rem
jobtype               opt
exchange              hf
correlation           rimp2
basis                 6-31g*
basis2                r64g
aux_basis             rimp2-vdz
dual_basis_energy     true
n_frozen_core         fc
mem_static            800
geom_opt_max_cycles   150
$end

$opt
constraint
tors 1 2 7 11 -45
tors 2 7 11 12 -165
endconstraint
$end

