$molecule
0 1
C       -1.7407800504   -0.3307967626    0.2158855930
C       -0.5757964154    0.3449652782   -0.5042188398
H       -1.4585413862   -1.3278656862    0.5591240532
H       -2.6093762096   -0.4295183616   -0.4373629157
H       -2.0409169005    0.2517549393    1.0882685241
H       -0.3351543056   -0.1974220318   -1.4235166406
C        0.6845627239    0.4607049839    0.3635461364
H       -0.8869255323    1.3429769906   -0.8234920442
H        0.4497816935    0.2803506888    1.4144637582
H        1.1070309865    1.4667140702    0.2841577354
O        1.7308169850   -0.4812272428    0.0115543346
H        1.4997587515   -0.8377020110   -0.8723675775
$end

$rem
jobtype               opt
exchange              hf
correlation           rimp2
basis                 6-31g*
basis2                r64g
aux_basis             rimp2-vdz
dual_basis_energy     true
n_frozen_core         fc
mem_static            800
geom_opt_max_cycles   150
$end

$opt
constraint
tors 1 2 7 11 120
tors 2 7 11 12 15
endconstraint
$end

