$molecule
0 1
C       -1.7468010025   -0.3357706537    0.2029218823
C       -0.5792612063    0.3571673183   -0.4964088543
H       -1.4649639208   -1.3422463472    0.5174464243
H       -2.6147143405   -0.4151212726   -0.4538730159
H       -2.0475843047    0.2223167694    1.0910449894
H       -0.3388932369   -0.1656345725   -1.4266805940
C        0.6808165223    0.4411834171    0.3760578184
H       -0.8859318470    1.3648372447   -0.7886130675
H        0.4542470771    0.2121037738    1.4181647315
H        1.0982290831    1.4527857358    0.3398747615
O        1.7188034559   -0.4951454004   -0.0079161433
H        1.6200779367   -0.6300360844   -0.9751968830
$end

$rem
jobtype               opt
exchange              hf
correlation           rimp2
basis                 6-31g*
basis2                r64g
aux_basis             rimp2-vdz
dual_basis_energy     true
n_frozen_core         fc
mem_static            800
geom_opt_max_cycles   150
$end

$opt
constraint
tors 1 2 7 11 90
tors 2 7 11 12 30
endconstraint
$end

