$molecule
0 1
C        1.4466797955   -0.5879985187   -0.0757808768
C        0.6931554658    0.7232715697    0.1244147787
H        1.0770819093   -1.3488478395    0.6076839549
H        2.5130286152   -0.4409284614    0.1045380713
H        1.3247553231   -0.9660099642   -1.0924750786
H        0.8435595349    1.0508161128    1.1563550691
C       -0.8071934013    0.6138401216   -0.1524289321
H        1.1060314508    1.5109409579   -0.5109754882
H       -0.9966589842    0.8219537528   -1.2099699584
H       -1.3704582900    1.3445914991    0.4358680914
O       -1.2625250754   -0.7289582233    0.1509743554
H       -2.0160239298   -0.9051567765   -0.4534595160
$end

$rem
jobtype               opt
exchange              hf
correlation           rimp2
basis                 6-31g*
basis2                r64g
aux_basis             rimp2-vdz
dual_basis_energy     true
n_frozen_core         fc
mem_static            800
geom_opt_max_cycles   150
$end

$opt
constraint
tors 1 2 7 11 45
tors 2 7 11 12 -150
endconstraint
$end

