$molecule
0 1
C        1.8234900739   -0.1055024705   -0.2601230716
C        0.5497319345    0.4573219968    0.3670900398
H        2.1067504906   -1.0504234771    0.2075933290
H        2.6596501328    0.5862800273   -0.1467710760
H        1.6787741013   -0.2910046558   -1.3258088302
H        0.7211701917    0.7107462277    1.4153849059
C       -0.6446707832   -0.4979791399    0.2337677101
H        0.3018265835    1.3997717115   -0.1309656612
H       -0.8795982586   -0.9837761538    1.1812232583
H       -0.4041439051   -1.2833875644   -0.4915785466
O       -1.8702789912    0.1506427780   -0.1838723141
H       -1.5992717705    0.9126235999   -0.7404283112
$end

$rem
jobtype               opt
exchange              hf
correlation           rimp2
basis                 6-31g*
basis2                r64g
aux_basis             rimp2-vdz
dual_basis_energy     true
n_frozen_core         fc
mem_static            800
geom_opt_max_cycles   150
$end

$opt
constraint
tors 1 2 7 11 -135
tors 2 7 11 12 45
endconstraint
$end

