$molecule
0 1
C        1.8933624844   -0.1239736861    0.0635364798
C        0.5141439275    0.5205550254   -0.0548899490
H        1.9748385289   -0.6874933211    0.9943467207
H        2.6817548449    0.6298048978    0.0550470984
H        2.0792553481   -0.8121677166   -0.7635304669
H        0.3491973821    1.1846390449    0.7979297927
C       -0.6067560481   -0.5075659590   -0.0696856440
H        0.4567399213    1.1349446215   -0.9582660582
H       -0.4690731590   -1.2341472186    0.7327785467
H       -0.6124043495   -1.0512427391   -1.0207049420
O       -1.9082263409    0.0822490819    0.1665445383
H       -1.8591498631    0.9970026133   -0.1896685104
$end

$rem
jobtype               opt
exchange              hf
correlation           rimp2
basis                 6-31g*
basis2                r64g
aux_basis             rimp2-vdz
dual_basis_energy     true
n_frozen_core         fc
mem_static            800
geom_opt_max_cycles   150
$end

$opt
constraint
tors 1 2 7 11 165
tors 2 7 11 12 15
endconstraint
$end

