$molecule
0 1
C        1.4482120323   -0.5880266041    0.0604627823
C        0.6826456255    0.7127388687   -0.1613577341
H        1.3588632035   -0.9315849561    1.0926118873
H        2.5078781631   -0.4432020226   -0.1572391375
H        1.0619409341   -1.3732933131   -0.5851648975
H        1.1161443374    1.5255197408    0.4269712741
C       -0.8058457982    0.6101870544    0.1753152124
H        0.7928673532    1.0006843971   -1.2100503760
H       -1.3935889288    1.3160161581   -0.4194892566
H       -0.9570851092    0.8585186995    1.2303018472
O       -1.2660994148   -0.7446214421   -0.0596364687
H       -1.9959109586   -0.9002636119    0.5785690911
$end

$rem
jobtype               opt
exchange              hf
correlation           rimp2
basis                 6-31g*
basis2                r64g
aux_basis             rimp2-vdz
dual_basis_energy     true
n_frozen_core         fc
mem_static            800
geom_opt_max_cycles   150
$end

$opt
constraint
tors 1 2 7 11 -30
tors 2 7 11 12 165
endconstraint
$end

