$molecule
0 1
C        1.4285592973   -0.5657248022   -0.0318475213
C        0.6621276470    0.7529534849    0.0601265896
H        1.1305875817   -1.2521721044    0.7614795966
H        2.4987291072   -0.3839995341    0.0744754476
H        1.2818430341   -1.0599573743   -0.9956464843
H        0.8925834360    1.2042389284    1.0278024785
C       -0.8705571268    0.6284630540   -0.0922618262
H        1.0351723434    1.4445882281   -0.6979973079
H       -1.1683457956    1.0152460202   -1.0724036891
H       -1.3860326543    1.2192245422    0.6646351253
O       -1.4058360717   -0.7098727220    0.0384217210
H       -0.7091659189   -1.3248827611   -0.2738173707
$end

$rem
jobtype               opt
exchange              hf
correlation           rimp2
basis                 6-31g*
basis2                r64g
aux_basis             rimp2-vdz
dual_basis_energy     true
n_frozen_core         fc
mem_static            800
geom_opt_max_cycles   150
$end

$opt
constraint
tors 1 2 7 11 0
tors 2 7 11 12 -30
endconstraint
$end

