$molecule
0 1
C        1.8813238882   -0.1376021650   -0.1093709794
C        0.5174526372    0.5208615645    0.0882040588
H        2.1106781739   -0.8277951106    0.7055285100
H        2.6770630485    0.6077740736   -0.1471774967
H        1.9067870151   -0.7033276872   -1.0428026854
H        0.5076425788    1.1405146003    0.9868114415
C       -0.6091827851   -0.4996769656    0.1682088046
H        0.3075224331    1.1850427417   -0.7536754962
H       -0.6201263456   -0.9928605435    1.1424799094
H       -0.4705822245   -1.2745650504   -0.5911560624
O       -1.9007704654    0.1411588121    0.0023175152
H       -2.2046035710   -0.0807228487   -0.9035578658
$end

$rem
jobtype               opt
exchange              hf
correlation           rimp2
basis                 6-31g*
basis2                r64g
aux_basis             rimp2-vdz
dual_basis_energy     true
n_frozen_core         fc
mem_static            800
geom_opt_max_cycles   150
$end

$opt
constraint
tors 1 2 7 11 -165
tors 2 7 11 12 120
endconstraint
$end

