$molecule
0 1
C        1.5250998939   -0.5386759650    0.0715474812
C        0.6449466530    0.6558091593   -0.2785378052
H        1.6669426831   -0.6170237628    1.1520743460
H        2.5103208898   -0.4516079516   -0.3889847605
H        1.0622045986   -1.4600104907   -0.2806288434
H        1.1019640282    1.5868689705    0.0704912548
C       -0.7472244803    0.5468208072    0.3188493008
H        0.5458781441    0.7358358364   -1.3635349735
H       -1.3593406214    1.4063794061    0.0339618930
H       -0.6910501507    0.5224943835    1.4107058824
O       -1.4025656216   -0.6497618339   -0.1810249717
H       -1.6104397331   -1.2058981905    0.5997071203
$end

$rem
jobtype               opt
exchange              hf
correlation           rimp2
basis                 6-31g*
basis2                r64g
aux_basis             rimp2-vdz
dual_basis_energy     true
n_frozen_core         fc
mem_static            800
geom_opt_max_cycles   150
$end

$opt
constraint
tors 1 2 7 11 -60
tors 2 7 11 12 135
endconstraint
$end

