$molecule
0 1
C        1.7787248334   -0.2224456313   -0.2730861718
C        0.5777154525    0.5813871635    0.2188229770
H        2.1028651173   -0.9384266333    0.4846001356
H        2.6249023395    0.4272489222   -0.5033443989
H        1.5247612184   -0.7799789254   -1.1764093727
H        0.8632597560    1.1347730439    1.1177595834
C       -0.6458054163   -0.2963897341    0.5118836870
H        0.2826059355    1.3203611507   -0.5278134764
H       -1.0823566342   -0.0549785280    1.4839192238
H       -0.3670929294   -1.3519003521    0.5323458598
O       -1.6526372423   -0.1621418747   -0.5280051143
H       -2.3689774534    0.3908190061   -0.1492732791
$end

$rem
jobtype               opt
exchange              hf
correlation           rimp2
basis                 6-31g*
basis2                r64g
aux_basis             rimp2-vdz
dual_basis_energy     true
n_frozen_core         fc
mem_static            800
geom_opt_max_cycles   150
$end

$opt
constraint
tors 1 2 7 11 -105
tors 2 7 11 12 -120
endconstraint
$end

