
$molecule
0 1
$end

$rem
jobtype              opt
exchange             hf
correlation          rimp2
basis                6-31g*
basis2               r64g
aux_basis            rimp2-vdz
dual_basis_energy    true
n_frozen_core        fc
mem_static           800
geom_opt_max_cycles  150
$end



$opt
constraint
tors 1 2 7 11 -165
tors 2 7 11 12 -165
endconstraint
$end

