$molecule
0 1
C        1.8403405499   -0.1454771257   -0.2326472386
C        0.5523773202    0.5315895860    0.2327577086
H        2.1219881852   -0.9634566087    0.4340420655
H        2.6717498896    0.5608431763   -0.2602973460
H        1.7182309631   -0.5596587452   -1.2354248215
H        0.7061433044    1.0088612377    1.2025379740
C       -0.6385223914   -0.4329591121    0.2998883269
H        0.2842332178    1.3266055168   -0.4656202030
H       -0.8908458441   -0.6786804310    1.3327932402
H       -0.3994876918   -1.3708561071   -0.2086746265
O       -1.8314081315    0.1546795338   -0.2859054839
H       -1.9525153106   -0.2776617058   -1.1581102018
$end

$rem
jobtype               opt
exchange              hf
correlation           rimp2
basis                 6-31g*
basis2                r64g
aux_basis             rimp2-vdz
dual_basis_energy     true
n_frozen_core         fc
mem_static            800
geom_opt_max_cycles   150
$end

$opt
constraint
tors 1 2 7 11 -135
tors 2 7 11 12 120
endconstraint
$end

