$molecule
0 1
C       -1.7796147957   -0.2258796144    0.2579128603
C       -0.5521649299    0.1545167749   -0.5674002183
H       -1.5671385977   -1.0820964245    0.9011722337
H       -2.6235379799   -0.4864426644   -0.3830016527
H       -2.0887825375    0.6024145822    0.8978315330
H       -0.2853124913   -0.6688491507   -1.2359259329
C        0.6687471795    0.5028722133    0.2995857706
H       -0.7988672549    0.9941423112   -1.2212876310
H        0.4004867967    0.4443019657    1.3601138823
H        1.0243344839    1.5147347131    0.1037409702
O        1.8159414746   -0.3500365907    0.0613668328
H        1.4557733657   -1.2215349046   -0.2125790886
$end

$rem
jobtype               opt
exchange              hf
correlation           rimp2
basis                 6-31g*
basis2                r64g
aux_basis             rimp2-vdz
dual_basis_energy     true
n_frozen_core         fc
mem_static            800
geom_opt_max_cycles   150
$end

$opt
constraint
tors 1 2 7 11 120
tors 2 7 11 12 -45
endconstraint
$end

