$molecule
0 1
C        1.4775720822   -0.5413377033   -0.0703907563
C        0.6673971119    0.7252144344    0.1874818727
H        1.0884844773   -1.3647237156    0.5268119968
H        2.5260851566   -0.3936286046    0.1919427884
H        1.4383211559   -0.8320822331   -1.1235170388
H        0.7179869899    0.9613102503    1.2531093977
C       -0.7986952780    0.5793779578   -0.2108276786
H        1.0946458422    1.5781860571   -0.3474037440
H       -0.9077550721    0.6621009154   -1.2967260128
H       -1.4041113681    1.3640300320    0.2443052003
O       -1.3653769211   -0.6755684366    0.2421065569
H       -1.2104546239   -1.3194353065   -0.4826885366
$end

$rem
jobtype               opt
exchange              hf
correlation           rimp2
basis                 6-31g*
basis2                r64g
aux_basis             rimp2-vdz
dual_basis_energy     true
n_frozen_core         fc
mem_static            800
geom_opt_max_cycles   150
$end

$opt
constraint
tors 1 2 7 11 30
tors 2 7 11 12 -90
endconstraint
$end

