$molecule
0 1
C        1.7895079382   -0.3284290814   -0.1065331408
C        0.5848858596    0.4434426029    0.4293882229
H        1.5628654953   -1.3929863664   -0.1969453881
H        2.6530854093   -0.2260245799    0.5528633388
H        2.0795964224    0.0353607282   -1.0942713836
H        0.3210291159    0.0898446540    1.4276778117
C       -0.6656911250    0.3046143849   -0.4526664513
H        0.8497366087    1.4979337937    0.5344106172
H       -0.4484220928   -0.2761247120   -1.3537829407
H       -1.0268995349    1.2820078882   -0.7735294890
O       -1.7814033505   -0.2842108841    0.2650567015
H       -1.7085726632   -1.2551193698    0.1344398345
$end

$rem
jobtype               opt
exchange              hf
correlation           rimp2
basis                 6-31g*
basis2                r64g
aux_basis             rimp2-vdz
dual_basis_energy     true
n_frozen_core         fc
mem_static            800
geom_opt_max_cycles   150
$end

$opt
constraint
tors 1 2 7 11 120
tors 2 7 11 12 -105
endconstraint
$end

