$molecule
0 1
C        1.4737970762   -0.5317683730   -0.1093924853
C        0.6319955902    0.7038068821    0.2067699439
H        1.1772553586   -1.3905625935    0.4954747269
H        2.5251628771   -0.3422043374    0.1110210589
H        1.3989001420   -0.8100271976   -1.1633082060
H        0.6733611157    0.8873571878    1.2836999027
C       -0.8272682155    0.5931388707   -0.2319545102
H        1.0629069429    1.5827052176   -0.2792911652
H       -0.8846909554    0.7389550972   -1.3170338233
H       -1.4349155665    1.3643089601    0.2425715805
O       -1.4588666420   -0.6660134147    0.0922940847
H       -0.7514363913   -1.3447994934    0.0820480440
$end

$rem
jobtype               opt
exchange              hf
correlation           rimp2
basis                 6-31g*
basis2                r64g
aux_basis             rimp2-vdz
dual_basis_energy     true
n_frozen_core         fc
mem_static            800
geom_opt_max_cycles   150
$end

$opt
constraint
tors 1 2 7 11 60
tors 2 7 11 12 -30
endconstraint
$end

