$molecule
0 1
C        1.5019208817   -0.5102983586    0.1296743283
C        0.6141291130    0.6512401323   -0.3119494431
H        1.6370312260   -0.4991696413    1.2126896022
H        2.4867943884   -0.4503986272   -0.3357921844
H        1.0633004864   -1.4728158388   -0.1357132537
H        1.0720052922    1.6010768328   -0.0220625557
C       -0.7847727639    0.5898424706    0.2800521923
H        0.5323436463    0.6692224527   -1.4035892459
H       -1.3680233149    1.4566059992   -0.0457824428
H       -0.7393055139    0.6008417839    1.3714752989
O       -1.5040290439   -0.6141421868   -0.0869393539
H       -1.0128931679   -1.0138020833   -0.8373294028
$end

$rem
jobtype               opt
exchange              hf
correlation           rimp2
basis                 6-31g*
basis2                r64g
aux_basis             rimp2-vdz
dual_basis_energy     true
n_frozen_core         fc
mem_static            800
geom_opt_max_cycles   150
$end

$opt
constraint
tors 1 2 7 11 -75
tors 2 7 11 12 -15
endconstraint
$end

