$molecule
0 1
C        1.7068905285   -0.4054177805    0.0995163948
C        0.5937719301    0.5058498081   -0.4103222705
H        2.0043405052   -0.1210074005    1.1105595877
H        2.5901519766   -0.3484404149   -0.5390010929
H        1.3734644301   -1.4443011135    0.1247548755
H        0.9571206945    1.5377848099   -0.4180051046
C       -0.6695348413    0.4315148512    0.4402594654
H        0.3189058446    0.2551280038   -1.4358032619
H       -1.1963769334    1.3890048040    0.4173703958
H       -0.4314299370    0.2073248047    1.4843404985
O       -1.5342213016   -0.6118223242   -0.0872506684
H       -2.4407969668   -0.2379617235   -0.1110294722
$end

$rem
jobtype               opt
exchange              hf
correlation           rimp2
basis                 6-31g*
basis2                r64g
aux_basis             rimp2-vdz
dual_basis_energy     true
n_frozen_core         fc
mem_static            800
geom_opt_max_cycles   150
$end

$opt
constraint
tors 1 2 7 11 -90
tors 2 7 11 12 -150
endconstraint
$end

