$molecule
0 1
C        1.4285772065   -0.5915506796    0.0186679340
C        0.6913198247    0.7369616341   -0.1296431489
H        1.3043574373   -1.0064998604    1.0193141067
H        2.4951896460   -0.4478689371   -0.1627031587
H        1.0498632930   -1.3241174321   -0.6907658052
H        1.1265035227    1.4865540538    0.5353622691
C       -0.8178671492    0.6430299903    0.1484103048
H        0.8500488989    1.1035615153   -1.1471511613
H       -1.3808295598    1.2229820767   -0.5861249575
H       -1.0471079609    1.0552894351    1.1351947510
O       -1.2557940310   -0.7421600399    0.1456911440
H       -2.0851486837   -0.7733571159   -0.3781082233
$end

$rem
jobtype               opt
exchange              hf
correlation           rimp2
basis                 6-31g*
basis2                r64g
aux_basis             rimp2-vdz
dual_basis_energy     true
n_frozen_core         fc
mem_static            800
geom_opt_max_cycles   150
$end

$opt
constraint
tors 1 2 7 11 0
tors 2 7 11 12 -135
endconstraint
$end

