$molecule
0 1
C        1.8908319136   -0.1214076097    0.0717243159
C        0.5105676716    0.5142619433   -0.0777482762
H        1.9681898841   -0.6516750617    1.0221633848
H        2.6768133930    0.6342895351    0.0411915614
H        2.0833900628   -0.8374188074   -0.7297100108
H        0.3446503519    1.2077510914    0.7519873073
C       -0.6075400293   -0.5168063310   -0.0583848092
H        0.4541364358    1.0965988129   -1.0016818165
H       -0.4568252080   -1.2207979524    0.7630809726
H       -0.6179345935   -1.0858048421   -0.9933061252
O       -1.9149577067    0.0741403845    0.1489675920
H       -1.8104385954    1.0373383648   -0.0104447530
$end

$rem
jobtype               opt
exchange              hf
correlation           rimp2
basis                 6-31g*
basis2                r64g
aux_basis             rimp2-vdz
dual_basis_energy     true
n_frozen_core         fc
mem_static            800
geom_opt_max_cycles   150
$end

$opt
constraint
tors 1 2 7 11 180
tors 2 7 11 12 15
endconstraint
$end

