$molecule
0 1
C        1.5848211727   -0.4961503817   -0.1296037207
C        0.6236696389    0.5985604320    0.3219322557
H        1.1516154254   -1.4795853485    0.0553811619
H        2.5346282645   -0.4341660408    0.4040644750
H        1.7934652350   -0.4103375493   -1.1979666729
H        0.4578420158    0.5489998674    1.3999979530
C       -0.7265265918    0.5038603626   -0.3615585524
H        1.0552422093    1.5810340107    0.1084573887
H       -0.6022512625    0.3392505212   -1.4369999089
H       -1.2996832472    1.4268978641   -0.2223572250
O       -1.4335777522   -0.6047187598    0.2491099186
H       -2.1872422683   -0.8161512113   -0.3463289363
$end

$rem
jobtype               opt
exchange              hf
correlation           rimp2
basis                 6-31g*
basis2                r64g
aux_basis             rimp2-vdz
dual_basis_energy     true
n_frozen_core         fc
mem_static            800
geom_opt_max_cycles   150
$end

$opt
constraint
tors 1 2 7 11 75
tors 2 7 11 12 180
endconstraint
$end

