$molecule
0 1
C        1.8901565709   -0.1156226663    0.0162193168
C        0.4984546184    0.5104624465   -0.0340696991
H        2.0281475844   -0.6844278638    0.9376198477
H        2.6667120689    0.6491407374   -0.0261795983
H        2.0418958439   -0.7954148528   -0.8241422306
H        0.3800418014    1.2047410443    0.8042750976
C       -0.6055436187   -0.5312057892    0.0379008212
H        0.3740782681    1.0914648640   -0.9512696951
H       -0.4990128195   -1.1222740625    0.9544795116
H       -0.5523164671   -1.2138367620   -0.8116394177
O       -1.9288625201    0.0538150351   -0.0091691648
H       -1.8450879747    0.9433056585    0.4002159458
$end

$rem
jobtype               opt
exchange              hf
correlation           rimp2
basis                 6-31g*
basis2                r64g
aux_basis             rimp2-vdz
dual_basis_energy     true
n_frozen_core         fc
mem_static            800
geom_opt_max_cycles   150
$end

$opt
constraint
tors 1 2 7 11 -165
tors 2 7 11 12 -30
endconstraint
$end

