$molecule
0 1
C        1.7178412326   -0.3608404674   -0.1753047624
C        0.5654202080    0.4170995166    0.4571565533
H        1.4283916511   -1.3917748543   -0.3911433774
H        2.5873931050   -0.3884338499    0.4835164043
H        2.0225244404    0.1018522057   -1.1153289942
H        0.3026259393    0.0028449759    1.4340281768
C       -0.6948971707    0.4441766298   -0.4158277085
H        0.8968951388    1.4408148862    0.6491883920
H       -0.4451156881    0.1804407696   -1.4490743877
H       -1.1493200348    1.4353757608   -0.4250510732
O       -1.7436552113   -0.4346649132    0.0642333168
H       -1.2896947805   -1.1802386588    0.5151257685
$end

$rem
jobtype               opt
exchange              hf
correlation           rimp2
basis                 6-31g*
basis2                r64g
aux_basis             rimp2-vdz
dual_basis_energy     true
n_frozen_core         fc
mem_static            800
geom_opt_max_cycles   150
$end

$opt
constraint
tors 1 2 7 11 105
tors 2 7 11 12 -45
endconstraint
$end

