$molecule
0 1
C        1.4796274168   -0.5304052589    0.0729550878
C        0.6597326298    0.7289413292   -0.1927269253
H        1.4275901000   -0.8276183468    1.1238716642
H        2.5304240599   -0.3690501496   -0.1711935919
H        1.1164528270   -1.3566906018   -0.5373587073
H        1.0812350699    1.5850722416    0.3413376102
C       -0.8071664001    0.5782298858    0.2035952932
H        0.7135832278    0.9611652957   -1.2590258235
H       -1.4182004584    1.3529274982   -0.2593990766
H       -0.9157406311    0.6702941431    1.2897720655
O       -1.3804328582   -0.6758724733   -0.2353682574
H       -1.0187061197   -1.3597220714    0.3702818792
$end

$rem
jobtype               opt
exchange              hf
correlation           rimp2
basis                 6-31g*
basis2                r64g
aux_basis             rimp2-vdz
dual_basis_energy     true
n_frozen_core         fc
mem_static            800
geom_opt_max_cycles   150
$end

$opt
constraint
tors 1 2 7 11 -45
tors 2 7 11 12 90
endconstraint
$end

