$molecule
0 1
C        1.7221557877   -0.3852308102    0.0642404505
C        0.5634274364    0.5133143791   -0.3627629844
H        2.0361318155   -0.1477698800    1.0819291826
H        2.5856770720   -0.2610363326   -0.5914165996
H        1.4249742388   -1.4352178930    0.0401940190
H        0.8896055123    1.5559760733   -0.3266243432
C       -0.6862523714    0.3405758730    0.5116010586
H        0.3029300842    0.3154011507   -1.4064928944
H       -1.0818247039    1.3194051684    0.8019490872
H       -0.4548722532   -0.2088188527    1.4250266813
O       -1.7482433531   -0.4084527595   -0.1307707970
H       -1.6616472756   -0.2334736150   -1.0927708825
$end

$rem
jobtype               opt
exchange              hf
correlation           rimp2
basis                 6-31g*
basis2                r64g
aux_basis             rimp2-vdz
dual_basis_energy     true
n_frozen_core         fc
mem_static            800
geom_opt_max_cycles   150
$end

$opt
constraint
tors 1 2 7 11 -90
tors 2 7 11 12 -30
endconstraint
$end

