$molecule
0 1
C        1.5887789050   -0.4539832363   -0.1760753204
C        0.5977357684    0.5743638014    0.3654584347
H        1.1893104707   -1.4675504620   -0.1053528713
H        2.5303262478   -0.4258272832    0.3745125246
H        1.8045111488   -0.2570894264   -1.2274169341
H        0.4363333638    0.4375896599    1.4390452812
C       -0.7498475588    0.5258956065   -0.3383003419
H        1.0184244294    1.5767687082    0.2451622456
H       -0.6136468595    0.4733001590   -1.4218307454
H       -1.3283949872    1.4251933561   -0.1112189419
O       -1.5567645732   -0.6110609624    0.0649563549
H       -1.0284921796   -1.1088363997    0.7254872222
$end

$rem
jobtype               opt
exchange              hf
correlation           rimp2
basis                 6-31g*
basis2                r64g
aux_basis             rimp2-vdz
dual_basis_energy     true
n_frozen_core         fc
mem_static            800
geom_opt_max_cycles   150
$end

$opt
constraint
tors 1 2 7 11 60
tors 2 7 11 12 0
endconstraint
$end

