$molecule
0 1
C        1.4577190910   -0.5429612467    0.0430837881
C        0.6693075042    0.7537926037   -0.1245027606
H        1.3472188000   -0.9600894413    1.0477762208
H        2.5217257545   -0.3657031052   -0.1186165024
H        1.1268800784   -1.2886130579   -0.6789476569
H        1.0601050532    1.5287129426    0.5394062009
C       -0.8378666278    0.5973318008    0.1289620098
H        0.8248270299    1.1098811021   -1.1457717997
H       -1.4148152837    1.2883716369   -0.4841408717
H       -1.0607583449    0.8180047060    1.1788733261
O       -1.3563986490   -0.7135432348   -0.1926256868
H       -0.8644826423   -1.3412604718    0.3811919740
$end

$rem
jobtype               opt
exchange              hf
correlation           rimp2
basis                 6-31g*
basis2                r64g
aux_basis             rimp2-vdz
dual_basis_energy     true
n_frozen_core         fc
mem_static            800
geom_opt_max_cycles   150
$end

$opt
constraint
tors 1 2 7 11 -15
tors 2 7 11 12 60
endconstraint
$end

