$molecule
0 1
C       -1.7741397640    0.0212228980    0.3440389496
C       -0.5664041222    0.2409031280   -0.5646569522
H       -2.0717012389   -1.0288089739    0.3458165169
H       -2.6311199545    0.6112222182    0.0148366087
H       -1.5450960814    0.3040226814    1.3734263749
H       -0.8334058630   -0.0181465251   -1.5918286296
C        0.6690894088   -0.5612343924   -0.1242046375
H       -0.3067561808    1.3029736015   -0.5883292159
H        1.0132512768   -1.2321478009   -0.9117092017
H        0.4226714858   -1.1737801964    0.7499698637
O        1.8174892703    0.2639677223    0.1927456545
H        1.4585204047    1.1158198348    0.5240698945
$end

$rem
jobtype               opt
exchange              hf
correlation           rimp2
basis                 6-31g*
basis2                r64g
aux_basis             rimp2-vdz
dual_basis_energy     true
n_frozen_core         fc
mem_static            800
geom_opt_max_cycles   150
$end

$opt
constraint
tors 1 2 7 11 -135
tors 2 7 11 12 30
endconstraint
$end

