$molecule
0 1
C        1.8671475364   -0.1271556295   -0.1316736502
C        0.5097947061    0.5179483251    0.1413835838
H        2.1273421302   -0.8479055831    0.6464755786
H        2.6593764173    0.6219028768   -0.1700571034
H        1.8528392000   -0.6546972016   -1.0865446458
H        0.5438267795    1.1124405582    1.0583723788
C       -0.6189464297   -0.5065085890    0.2187863434
H        0.2727780696    1.2022369667   -0.6773384059
H       -0.7001658388   -0.9234309246    1.2285023512
H       -0.4311325223   -1.3316152389   -0.4693341613
O       -1.8931990413    0.0304185520   -0.2099732138
H       -1.9696578100    0.9125239080    0.2188323748
$end

$rem
jobtype               opt
exchange              hf
correlation           rimp2
basis                 6-31g*
basis2                r64g
aux_basis             rimp2-vdz
dual_basis_energy     true
n_frozen_core         fc
mem_static            800
geom_opt_max_cycles   150
$end

$opt
constraint
tors 1 2 7 11 -165
tors 2 7 11 12 -45
endconstraint
$end

