$molecule
0 1
C        1.5063239976   -0.5061433430    0.1299624829
C        0.6151753506    0.6517284635   -0.3170941316
H        1.5883386793   -0.5307016306    1.2182117946
H        2.5106580022   -0.4059225856   -0.2840881537
H        1.1157421677   -1.4729421087   -0.1914201950
H        1.0701721171    1.6006988033   -0.0205244792
C       -0.7878144948    0.5925157504    0.2664587649
H        0.5425600616    0.6690913858   -1.4088351644
H       -1.3754646360    1.4478744155   -0.0770074574
H       -0.7405469891    0.6288754041    1.3586404995
O       -1.5125225640   -0.6094143949   -0.0958797622
H       -0.9133731749   -1.1418172554   -0.6611153801
$end

$rem
jobtype               opt
exchange              hf
correlation           rimp2
basis                 6-31g*
basis2                r64g
aux_basis             rimp2-vdz
dual_basis_energy     true
n_frozen_core         fc
mem_static            800
geom_opt_max_cycles   150
$end

$opt
constraint
tors 1 2 7 11 -75
tors 2 7 11 12 0
endconstraint
$end

