$molecule
0 1
C        1.5225298547   -0.5143526437   -0.1158359571
C        0.6218014905    0.6421170054    0.3044021870
H        1.0675278364   -1.4652916779    0.1598436594
H        2.5006692496   -0.4460467365    0.3629521227
H        1.6754196763   -0.5124185475   -1.1970186843
H        0.5010281064    0.6486358594    1.3903965342
C       -0.7527242492    0.5548784190   -0.3347473717
H        1.0770364428    1.5977606652    0.0255904758
H       -0.6674539401    0.5497846328   -1.4250854542
H       -1.3664241174    1.4135599125   -0.0511411390
O       -1.3970137644   -0.6865034011    0.0614678528
H       -2.2230601422   -0.4378887552    0.5283865599
$end

$rem
jobtype               opt
exchange              hf
correlation           rimp2
basis                 6-31g*
basis2                r64g
aux_basis             rimp2-vdz
dual_basis_energy     true
n_frozen_core         fc
mem_static            800
geom_opt_max_cycles   150
$end

$opt
constraint
tors 1 2 7 11 60
tors 2 7 11 12 105
endconstraint
$end

