$molecule
0 1
C        1.8478842606   -0.1362716872    0.2175382821
C        0.5397236494    0.4802502140   -0.2725766433
H        1.7494326742   -0.4680692172    1.2525263907
H        2.6654242057    0.5849638521    0.1700769284
H        2.1327789945   -1.0010449844   -0.3859209758
H        0.2769258142    1.3251986849    0.3667795050
C       -0.6345489061   -0.4952538673   -0.2135781269
H        0.6562059882    0.8755925626   -1.2836048661
H       -0.3914854707   -1.3515918333    0.4246993222
H       -0.8789738369   -0.8825760958   -1.2065006404
O       -1.7717758906    0.2043341861    0.3559955030
H       -2.5767124940   -0.2010885426   -0.0356084037
$end

$rem
jobtype               opt
exchange              hf
correlation           rimp2
basis                 6-31g*
basis2                r64g
aux_basis             rimp2-vdz
dual_basis_energy     true
n_frozen_core         fc
mem_static            800
geom_opt_max_cycles   150
$end

$opt
constraint
tors 1 2 7 11 135
tors 2 7 11 12 135
endconstraint
$end

