$molecule
0 1
C        1.4311895672   -0.5905258318    0.0343304678
C        0.6872058369    0.7356530542   -0.1065495290
H        1.2808638724   -1.0291955542    1.0209092187
H        2.5012599748   -0.4315755336   -0.1104434461
H        1.0831035178   -1.3097910490   -0.7040313880
H        1.0962698639    1.4713404549    0.5895710194
C       -0.8280560417    0.6288041473    0.1171365787
H        0.8743131413    1.1275811192   -1.1091686374
H       -1.3742223929    1.2068490290   -0.6345423664
H       -1.0936979589    1.0309086013    1.1004244153
O       -1.2194585912   -0.7651493647    0.0601214481
H       -2.1918822377   -0.7739482200    0.2086943865
$end

$rem
jobtype               opt
exchange              hf
correlation           rimp2
basis                 6-31g*
basis2                r64g
aux_basis             rimp2-vdz
dual_basis_energy     true
n_frozen_core         fc
mem_static            800
geom_opt_max_cycles   150
$end

$opt
constraint
tors 1 2 7 11 -15
tors 2 7 11 12 165
endconstraint
$end

