$molecule
0 1
C        1.4397130842   -0.5522225161    0.0828656968
C        0.6500027216    0.7323334328   -0.1710054470
H        1.2545510672   -0.9448090535    1.0841614893
H        2.5092690502   -0.3610898162   -0.0150137062
H        1.1947124410   -1.3352817167   -0.6365566203
H        1.0619880668    1.5474008761    0.4280915916
C       -0.8501600565    0.6261870461    0.1321388312
H        0.7900209025    1.0194263601   -1.2169733396
H       -1.4072074001    1.3428044231   -0.4781606388
H       -1.0328691921    0.8691670202    1.1811712859
O       -1.4222468743   -0.6910847023   -0.0549769334
H       -0.7768343615   -1.2138847031   -0.5749247015
$end

$rem
jobtype               opt
exchange              hf
correlation           rimp2
basis                 6-31g*
basis2                r64g
aux_basis             rimp2-vdz
dual_basis_energy     true
n_frozen_core         fc
mem_static            800
geom_opt_max_cycles   150
$end

$opt
constraint
tors 1 2 7 11 -15
tors 2 7 11 12 -15
endconstraint
$end

