$molecule
0 1
C        1.6595780828   -0.4431067282   -0.1045507431
C        0.6162285021    0.5714623373    0.3562249873
H        1.2906630623   -1.4632288098    0.0216435043
H        2.5853850334   -0.3519065025    0.4659028990
H        1.8997437219   -0.2981618871   -1.1597291113
H        0.4062992506    0.4649795689    1.4216181059
C       -0.7077478525    0.4464408104   -0.3890856037
H        1.0128250515    1.5801502500    0.2069336784
H       -0.5527561255    0.1454165959   -1.4284663967
H       -1.2305912668    1.4049329671   -0.3954560989
O       -1.5990505787   -0.4765539721    0.2940399225
H       -1.6038155230   -1.3068585036   -0.2294542947
$end

$rem
jobtype               opt
exchange              hf
correlation           rimp2
basis                 6-31g*
basis2                r64g
aux_basis             rimp2-vdz
dual_basis_energy     true
n_frozen_core         fc
mem_static            800
geom_opt_max_cycles   150
$end

$opt
constraint
tors 1 2 7 11 90
tors 2 7 11 12 -120
endconstraint
$end

