$molecule
0 1
C        1.4526601337   -0.5729668005    0.0505630257
C        0.6734392926    0.7144668948   -0.2021179620
H        1.4320410036   -0.8490775245    1.1063443712
H        2.4951609064   -0.4488009497   -0.2472055190
H        1.0215070818   -1.3950490937   -0.5160665056
H        1.1350181572    1.5576940278    0.3183477305
C       -0.7929748177    0.6248026442    0.2211491914
H        0.7254288546    0.9423973377   -1.2702350088
H       -1.4066580963    1.3100703996   -0.3681991244
H       -0.8980539633    0.9084035392    1.2729883584
O       -1.2688663813   -0.7410910381    0.0901972853
H       -2.1486232962   -0.6925289037   -0.3423677272
$end

$rem
jobtype               opt
exchange              hf
correlation           rimp2
basis                 6-31g*
basis2                r64g
aux_basis             rimp2-vdz
dual_basis_energy     true
n_frozen_core         fc
mem_static            800
geom_opt_max_cycles   150
$end

$opt
constraint
tors 1 2 7 11 -30
tors 2 7 11 12 -120
endconstraint
$end

