$molecule
0 1
C        1.4499767409   -0.5506582765    0.0305542234
C        0.6660444073    0.7574306486   -0.0690331057
H        1.2562573569   -1.0748836704    0.9693116813
H        2.5206995504   -0.3472752322   -0.0122011365
H        1.2174410190   -1.2205146587   -0.7991235495
H        1.0113368874    1.4468026765    0.7038257108
C       -0.8684351791    0.6171237259    0.0454615901
H        0.9150017007    1.2204696964   -1.0266730357
H       -1.3657064030    1.2281180584   -0.7090832901
H       -1.1903790187    0.9784450622    1.0266925436
O       -1.3971777255   -0.7226063758   -0.1068705028
H       -0.6462147813   -1.3449757088   -0.0200783767
$end

$rem
jobtype               opt
exchange              hf
correlation           rimp2
basis                 6-31g*
basis2                r64g
aux_basis             rimp2-vdz
dual_basis_energy     true
n_frozen_core         fc
mem_static            800
geom_opt_max_cycles   150
$end

$opt
constraint
tors 1 2 7 11 -15
tors 2 7 11 12 30
endconstraint
$end

