$molecule
0 1
C        1.8831944066   -0.1181553884   -0.0819248497
C        0.5071002889    0.5150208790    0.1106363210
H        2.0989679447   -0.8380044889    0.7100791793
H        2.6688768340    0.6383510251   -0.0691537565
H        1.9342635056   -0.6435416820   -1.0368250871
H        0.4750687932    1.0974867506    1.0350962737
C       -0.6089582898   -0.5187611006    0.1185981253
H        0.3203694099    1.2098009193   -0.7144171444
H       -0.6056352208   -1.0827050850    1.0550923523
H       -0.4629065418   -1.2268482323   -0.7020248460
O       -1.9254992732    0.0656637388   -0.0476889279
H       -1.7910234034    1.0341943167   -0.1308406103
$end

$rem
jobtype               opt
exchange              hf
correlation           rimp2
basis                 6-31g*
basis2                r64g
aux_basis             rimp2-vdz
dual_basis_energy     true
n_frozen_core         fc
mem_static            800
geom_opt_max_cycles   150
$end

$opt
constraint
tors 1 2 7 11 -150
tors 2 7 11 12 0
endconstraint
$end

