$molecule
0 1
C        1.8880827728   -0.1194167774    0.0801396941
C        0.5080578187    0.5085227953   -0.1009862636
H        1.9591295607   -0.6180226297    1.0480538519
H        2.6729682727    0.6363861761    0.0303670597
H        2.0877649988   -0.8610335916   -0.6958066201
H        0.3408120327    1.2298916242    0.7052314606
C       -0.6085032745   -0.5234900566   -0.0496229957
H        0.4545834730    1.0607709577   -1.0428294790
H       -0.4438726130   -1.2049628170    0.7897777796
H       -0.6274788354   -1.1172961748   -0.9672978850
O       -1.9204043793    0.0680309930    0.1279764780
H       -1.7833162721    1.0385455756    0.1765106775
$end

$rem
jobtype               opt
exchange              hf
correlation           rimp2
basis                 6-31g*
basis2                r64g
aux_basis             rimp2-vdz
dual_basis_energy     true
n_frozen_core         fc
mem_static            800
geom_opt_max_cycles   150
$end

$opt
constraint
tors 1 2 7 11 180
tors 2 7 11 12 0
endconstraint
$end

