$molecule
0 1
C        1.4304908823   -0.5615394854    0.0820122844
C        0.6516608808    0.7278684503   -0.1768269300
H        1.2725420314   -0.9234781276    1.0991279379
H        2.4989519697   -0.3912848105   -0.0582990222
H        1.1403421485   -1.3592140762   -0.6022150175
H        1.0780309290    1.5481645029    0.4052301202
C       -0.8440491794    0.6324249688    0.1464155545
H        0.7777170079    1.0020661153   -1.2284422965
H       -1.4048603788    1.3563791077   -0.4532732037
H       -1.0169200958    0.8656208685    1.1982817351
O       -1.4145095874   -0.6868977030   -0.0235860995
H       -0.9015706978   -1.1252673722   -0.7365776941
$end

$rem
jobtype               opt
exchange              hf
correlation           rimp2
basis                 6-31g*
basis2                r64g
aux_basis             rimp2-vdz
dual_basis_energy     true
n_frozen_core         fc
mem_static            800
geom_opt_max_cycles   150
$end

$opt
constraint
tors 1 2 7 11 -45
tors 2 7 11 12 -30
endconstraint
$end

