$molecule
0 1
C        1.8870097849   -0.1393808088   -0.0839339077
C        0.5251736555    0.5215212390    0.1147983068
H        2.0945666498   -0.8672382484    0.7036622251
H        2.6875566177    0.6017098057   -0.0707960980
H        1.9286289964   -0.6614435752   -1.0417740716
H        0.5004976047    1.0908119323    1.0459996324
C       -0.6076733914   -0.4867217585    0.1134347662
H        0.3344017813    1.2283853535   -0.6954003256
H       -0.6218349989   -1.0617650272    1.0457299608
H       -0.4804839811   -1.1924881173   -0.7152696290
O       -1.8395891256    0.2545347109   -0.0529393976
H       -2.5636936846   -0.4113171258   -0.0518913947
$end

$rem
jobtype               opt
exchange              hf
correlation           rimp2
basis                 6-31g*
basis2                r64g
aux_basis             rimp2-vdz
dual_basis_energy     true
n_frozen_core         fc
mem_static            800
geom_opt_max_cycles   150
$end

$opt
constraint
tors 1 2 7 11 -165
tors 2 7 11 12 -165
endconstraint
$end

