$molecule
0 1
C        1.5229983142   -0.5126086433   -0.0929080434
C        0.6474073681    0.6867417670    0.2563225335
H        1.1222690562   -1.4203664757    0.3589249607
H        2.5418711323   -0.3781883997    0.2730165370
H        1.5743100911   -0.6603149075   -1.1745266127
H        0.5962150651    0.8005359284    1.3413645761
C       -0.7706787689    0.5491738651   -0.2756078174
H        1.0842794760    1.6065034230   -0.1443695825
H       -0.7720140954    0.5148940121   -1.3695983537
H       -1.3807080193    1.3991927537    0.0333859586
O       -1.4310903045   -0.6225046631    0.2659067405
H       -1.2346763118   -1.3580093310   -0.3543564968
$end

$rem
jobtype               opt
exchange              hf
correlation           rimp2
basis                 6-31g*
basis2                r64g
aux_basis             rimp2-vdz
dual_basis_energy     true
n_frozen_core         fc
mem_static            800
geom_opt_max_cycles   150
$end

$opt
constraint
tors 1 2 7 11 60
tors 2 7 11 12 -105
endconstraint
$end

