$molecule
0 1
C        1.5083876068   -0.5221653901    0.1015277797
C        0.6158202475    0.6465930952   -0.3023150909
H        1.6853488583   -0.5158469227    1.1786336107
H        2.4759810461   -0.4731477622   -0.4002757876
H        1.0330324624   -1.4691382998   -0.1531489564
H        1.0802596097    1.5955802307   -0.0171526302
C       -0.7632938248    0.5709662422    0.3346683937
H        0.5013668088    0.6749635142   -1.3908661472
H       -1.3572131437    1.4542320549    0.0758681784
H       -0.6850770410    0.5221284680    1.4213234241
O       -1.4744669432   -0.6338093350   -0.0358081087
H       -1.5555645660   -0.6007635009   -1.0162574081
$end

$rem
jobtype               opt
exchange              hf
correlation           rimp2
basis                 6-31g*
basis2                r64g
aux_basis             rimp2-vdz
dual_basis_energy     true
n_frozen_core         fc
mem_static            800
geom_opt_max_cycles   150
$end

$opt
constraint
tors 1 2 7 11 -60
tors 2 7 11 12 -45
endconstraint
$end

