$molecule
0 1
C       -1.7763264325   -0.1055556910    0.3227868762
C       -0.5576687178    0.4365187890   -0.4213408347
H       -2.0803249453   -1.0717316440   -0.0836630410
H       -2.6260832503    0.5742027646    0.2409919694
H       -1.5518603826   -0.2434996385    1.3819073822
H       -0.8133165593    0.6050788042   -1.4699349458
C        0.6650350334   -0.4900201626   -0.3196761293
H       -0.3001993305    1.4201821215   -0.0168437805
H        0.9756802517   -0.8314598347   -1.3099509954
H        0.4178032987   -1.3747628109    0.2731448488
O        1.8267462069    0.1200681800    0.3003257341
H        1.5733647641    1.0376814586    0.5340794533
$end

$rem
jobtype               opt
exchange              hf
correlation           rimp2
basis                 6-31g*
basis2                r64g
aux_basis             rimp2-vdz
dual_basis_energy     true
n_frozen_core         fc
mem_static            800
geom_opt_max_cycles   150
$end

$opt
constraint
tors 1 2 7 11 -135
tors 2 7 11 12 0
endconstraint
$end

