$molecule
0 1
C        1.9018468854   -0.1277165928   -0.0318264755
C        0.5293064118    0.5329189166    0.0777609003
H        2.0510016467   -0.8528207885    0.7706905070
H        2.7012480708    0.6116582548    0.0330444274
H        2.0087673584   -0.6543921302   -0.9823004961
H        0.4365609003    1.0760145563    1.0203475643
C       -0.6024078337   -0.4790785625   -0.0063716953
H        0.4071833649    1.2673571119   -0.7238666395
H       -0.5554366611   -1.1749585825    0.8321611258
H       -0.5299410166   -1.0636445695   -0.9297499273
O       -1.9022277368    0.1477424431    0.0975415451
H       -2.0580994265    0.5841918986   -0.7696021850
$end

$rem
jobtype               opt
exchange              hf
correlation           rimp2
basis                 6-31g*
basis2                r64g
aux_basis             rimp2-vdz
dual_basis_energy     true
n_frozen_core         fc
mem_static            800
geom_opt_max_cycles   150
$end

$opt
constraint
tors 1 2 7 11 -165
tors 2 7 11 12 75
endconstraint
$end

