$molecule
0 1
C        1.8699936561   -0.1228725336    0.1612625047
C        0.5216363505    0.4926696565   -0.2075562187
H        1.8484251769   -0.5022661964    1.1838537817
H        2.6718115677    0.6132442576    0.0883891000
H        2.1194928073   -0.9547013344   -0.5005930589
H        0.3129809173    1.2969886243    0.5054954624
C       -0.6206500063   -0.5178562745   -0.1289362420
H        0.5575501888    0.9504487138   -1.1987406139
H       -0.4013822485   -1.2598111571    0.6440944547
H       -0.7388331394   -1.0480213330   -1.0773081854
O       -1.8988175416    0.0763945522    0.2124516018
H       -1.7398208858    1.0380747404    0.3221240482
$end

$rem
jobtype               opt
exchange              hf
correlation           rimp2
basis                 6-31g*
basis2                r64g
aux_basis             rimp2-vdz
dual_basis_energy     true
n_frozen_core         fc
mem_static            800
geom_opt_max_cycles   150
$end

$opt
constraint
tors 1 2 7 11 135
tors 2 7 11 12 0
endconstraint
$end

