$molecule
0 1
C        1.4960764280   -0.5289972391   -0.1115789246
C        0.6225802633    0.6677600933    0.2573721941
H        1.1125091900   -1.4508415294    0.3287438660
H        2.5144420467   -0.3967597241    0.2564341050
H        1.5469530212   -0.6612564734   -1.1950031152
H        0.5613604826    0.7564718066    1.3444974397
C       -0.7899323758    0.5759227518   -0.3032493173
H        1.0805125083    1.5886952504   -0.1151821756
H       -0.7604370289    0.5833078412   -1.3991299293
H       -1.3921192553    1.4236297698    0.0236073184
O       -1.5080722289   -0.5883256136    0.1640898064
H       -0.9836900481   -1.3645576046   -0.1330468677
$end

$rem
jobtype               opt
exchange              hf
correlation           rimp2
basis                 6-31g*
basis2                r64g
aux_basis             rimp2-vdz
dual_basis_energy     true
n_frozen_core         fc
mem_static            800
geom_opt_max_cycles   150
$end

$opt
constraint
tors 1 2 7 11 45
tors 2 7 11 12 -60
endconstraint
$end

