$molecule
0 1
C        1.8920429291   -0.1241254411    0.0437959073
C        0.5105228785    0.5140344924   -0.0836303632
H        1.9846325367   -0.6585964995    0.9910825403
H        2.6790763586    0.6303312593    0.0054090820
H        2.0758249654   -0.8380863352   -0.7621966025
H        0.3438707386    1.2093927096    0.7415535935
C       -0.6051017993   -0.5180277187   -0.0386354689
H        0.4374234381    1.0944123041   -1.0067337222
H       -0.4477985678   -1.1959114665    0.8036441252
H       -0.6235594839   -1.1228824146   -0.9492869649
O       -1.8880685383    0.1194885071    0.1918058159
H       -2.3635793525    0.1136434721   -0.6666778466
$end

$rem
jobtype               opt
exchange              hf
correlation           rimp2
basis                 6-31g*
basis2                r64g
aux_basis             rimp2-vdz
dual_basis_energy     true
n_frozen_core         fc
mem_static            800
geom_opt_max_cycles   150
$end

$opt
constraint
tors 1 2 7 11 165
tors 2 7 11 12 90
endconstraint
$end

