$molecule
0 1
C        1.7691442237   -0.1043772626   -0.3494642630
C        0.5765986174    0.4340866708    0.4372907317
H        2.0938880453   -1.0683413728    0.0469554526
H        2.6177192465    0.5802552996   -0.3004939485
H        1.5070064499   -0.2428422250   -1.3999443792
H        0.8675824761    0.5628099677    1.4829275980
C       -0.6541598407   -0.4698003304    0.3545827820
H        0.2820017204    1.4168918795    0.0669283734
H       -1.1057724724   -0.5951424474    1.3425823101
H       -0.3915120656   -1.4648770731   -0.0191126817
O       -1.6142735536    0.1506249259   -0.5418873184
H       -2.5041725671   -0.1244658470   -0.2299989389
$end

$rem
jobtype               opt
exchange              hf
correlation           rimp2
basis                 6-31g*
basis2                r64g
aux_basis             rimp2-vdz
dual_basis_energy     true
n_frozen_core         fc
mem_static            800
geom_opt_max_cycles   150
$end

$opt
constraint
tors 1 2 7 11 -90
tors 2 7 11 12 -150
endconstraint
$end

