$molecule
0 1
C        1.5242611407   -0.5172094184   -0.1295147437
C        0.6274493768    0.6418270671    0.2935908443
H        1.0822545912   -1.4668003209    0.1702422340
H        2.5121682751   -0.4356023153    0.3267104632
H        1.6536679491   -0.5304859262   -1.2137265467
H        0.5199177160    0.6577235177    1.3802812829
C       -0.7553515554    0.5519800257   -0.3215093168
H        1.0769067324    1.5949876270   -0.0014507823
H       -0.6955480786    0.5662044143   -1.4153676171
H       -1.3663193965    1.4023538355   -0.0046300960
O       -1.3569821018   -0.6933981678    0.1172862521
H       -2.3264028099   -0.5383385305    0.1496365354
$end

$rem
jobtype               opt
exchange              hf
correlation           rimp2
basis                 6-31g*
basis2                r64g
aux_basis             rimp2-vdz
dual_basis_energy     true
n_frozen_core         fc
mem_static            800
geom_opt_max_cycles   150
$end

$opt
constraint
tors 1 2 7 11 60
tors 2 7 11 12 135
endconstraint
$end

