$molecule
0 1
C        1.4518015953   -0.5734885203    0.0644070466
C        0.6718012320    0.7134426457   -0.1905834882
H        1.4130215755   -0.8605540150    1.1166399423
H        2.4989602286   -0.4396565604   -0.2123206954
H        1.0375740333   -1.3921395130   -0.5196094087
H        1.1208294259    1.5529394938    0.3462073048
C       -0.8016270394    0.6182719824    0.2001136789
H        0.7427186243    0.9515584166   -1.2549700775
H       -1.4061165967    1.2951517279   -0.4108805558
H       -0.9342799327    0.9066928113    1.2488809787
O       -1.2401648219   -0.7529258180    0.0355759273
H       -2.2230414643   -0.7266517440    0.0558112194
$end

$rem
jobtype               opt
exchange              hf
correlation           rimp2
basis                 6-31g*
basis2                r64g
aux_basis             rimp2-vdz
dual_basis_energy     true
n_frozen_core         fc
mem_static            800
geom_opt_max_cycles   150
$end

$opt
constraint
tors 1 2 7 11 -45
tors 2 7 11 12 -165
endconstraint
$end

