$molecule
0 1
C        1.8527071978   -0.1346841769   -0.2112939861
C        0.5441619816    0.5055795871    0.2460672811
H        2.1347278472   -0.9697709065    0.4338484541
H        2.6708154431    0.5873589339   -0.1961361647
H        1.7571426566   -0.5152067661   -1.2297589481
H        0.6636877048    0.9551748967    1.2336754986
C       -0.6255157352   -0.4757138908    0.2464070867
H        0.2765668829    1.3134778183   -0.4375682202
H       -0.8755176754   -0.8044752063    1.2603087384
H       -0.3751243479   -1.3667237478   -0.3399958187
O       -1.7548980517    0.1995899529   -0.3611546291
H       -2.4976015249   -0.4460640578   -0.3524850736
$end

$rem
jobtype               opt
exchange              hf
correlation           rimp2
basis                 6-31g*
basis2                r64g
aux_basis             rimp2-vdz
dual_basis_energy     true
n_frozen_core         fc
mem_static            800
geom_opt_max_cycles   150
$end

$opt
constraint
tors 1 2 7 11 -135
tors 2 7 11 12 -165
endconstraint
$end

