$molecule
0 1
C        1.9047952316   -0.1361113768    0.0212451160
C        0.5352191331    0.5381253773   -0.0159139034
H        2.0186974742   -0.7444462521    0.9209956378
H        2.7071311265    0.6030115487    0.0140819569
H        2.0443415734   -0.7886645219   -0.8431544572
H        0.4125413418    1.1945743729    0.8485164292
C       -0.5991846580   -0.4706313026   -0.0182489540
H        0.4400603481    1.1648045689   -0.9050197841
H       -0.5356257047   -1.1156366187    0.8624368479
H       -0.5406805943   -1.1116491388   -0.9022190079
O       -1.8728364139    0.2255169607   -0.0540611534
H       -2.3606782406   -0.0362936953    0.7554054898
$end

$rem
jobtype               opt
exchange              hf
correlation           rimp2
basis                 6-31g*
basis2                r64g
aux_basis             rimp2-vdz
dual_basis_energy     true
n_frozen_core         fc
mem_static            800
geom_opt_max_cycles   150
$end

$opt
constraint
tors 1 2 7 11 180
tors 2 7 11 12 -105
endconstraint
$end

