$molecule
0 1
C        1.8982768567   -0.1312135698    0.0491337684
C        0.5254260869    0.5339969449   -0.0226576678
H        1.9781019637   -0.7510923647    0.9437815381
H        2.6951942144    0.6129104139    0.0829205386
H        2.0747414208   -0.7705096885   -0.8185015261
H        0.3645257156    1.1477418199    0.8665818456
C       -0.6049958478   -0.4822331199   -0.0910926089
H        0.4712676327    1.2026010474   -0.8869520303
H       -0.4801395553   -1.2394009974    0.6837471964
H       -0.6133711142   -0.9920957799   -1.0608337327
O       -1.8955961904    0.1078898060    0.1877008607
H       -2.0246067713    0.8012693612   -0.4985141176
$end

$rem
jobtype               opt
exchange              hf
correlation           rimp2
basis                 6-31g*
basis2                r64g
aux_basis             rimp2-vdz
dual_basis_energy     true
n_frozen_core         fc
mem_static            800
geom_opt_max_cycles   150
$end

$opt
constraint
tors 1 2 7 11 165
tors 2 7 11 12 45
endconstraint
$end

