$molecule
0 1
C        1.6493128795   -0.4210661157    0.1380364530
C        0.6004766615    0.5473341707   -0.4064300427
H        1.9011453481   -0.1740246887    1.1709047016
H        2.5673762861   -0.3853281674   -0.4506972795
H        1.2893841339   -1.4527598639    0.1205499690
H        0.9997095590    1.5636621001   -0.3428885553
C       -0.7224762815    0.4880089587    0.3528796963
H        0.3925370207    0.3563075812   -1.4610565805
H       -1.2585364027    1.4334229875    0.2702887312
H       -0.5527804803    0.2877058022    1.4164068176
O       -1.6422442302   -0.4792858643   -0.2084454556
H       -1.1850743992   -1.3488734467   -0.1516429557
$end

$rem
jobtype               opt
exchange              hf
correlation           rimp2
basis                 6-31g*
basis2                r64g
aux_basis             rimp2-vdz
dual_basis_energy     true
n_frozen_core         fc
mem_static            800
geom_opt_max_cycles   150
$end

$opt
constraint
tors 1 2 7 11 -90
tors 2 7 11 12 45
endconstraint
$end

