$molecule
0 1
C       -1.7139232089    0.3568182708    0.1777666204
C       -0.5831845553   -0.4246487638   -0.4891061686
H       -2.0051713781   -0.1156742580    1.1173006503
H       -2.5963052306    0.4038701297   -0.4626352785
H       -1.4105513369    1.3821606361    0.4021887001
H       -0.9300899935   -1.4430419034   -0.6824968088
C        0.6959808634   -0.4737828073    0.3547255353
H       -0.3325838509   -0.0012942547   -1.4645035922
H        1.1505051964   -1.4639477510    0.3289049535
H        0.4743757280   -0.2336939350    1.4004397901
O        1.7366030113    0.4020983920   -0.1442314625
H        1.2920546767    1.2549341170   -0.3507583595
$end

$rem
jobtype               opt
exchange              hf
correlation           rimp2
basis                 6-31g*
basis2                r64g
aux_basis             rimp2-vdz
dual_basis_energy     true
n_frozen_core         fc
mem_static            800
geom_opt_max_cycles   150
$end

$opt
constraint
tors 1 2 7 11 -105
tors 2 7 11 12 30
endconstraint
$end

