$molecule
0 1
C        1.8930218922   -0.1274313344   -0.0336909769
C        0.5097017426    0.5183317889    0.0044438828
H        2.0622126350   -0.7439995032    0.8515225249
H        2.6792009835    0.6280023300   -0.0696433535
H        2.0034255439   -0.7667867539   -0.9120987477
H        0.4149374311    1.1743176349    0.8719902243
C       -0.6027314951   -0.5147225687    0.0637904289
H        0.3612876177    1.1416646353   -0.8808894069
H       -0.5222537301   -1.1071639223    0.9780352801
H       -0.5350316941   -1.2037672127   -0.7828120302
O       -1.9014875035    0.1311543504    0.0988615899
H       -2.2918913379    0.0204032051   -0.7944046909
$end

$rem
jobtype               opt
exchange              hf
correlation           rimp2
basis                 6-31g*
basis2                r64g
aux_basis             rimp2-vdz
dual_basis_energy     true
n_frozen_core         fc
mem_static            800
geom_opt_max_cycles   150
$end

$opt
constraint
tors 1 2 7 11 165
tors 2 7 11 12 105
endconstraint
$end

