$molecule
0 1
C        1.8758496526   -0.1397825040   -0.1387717889
C        0.5318491890    0.5239726622    0.1523506892
H        2.1203170367   -0.8942190790    0.6125380765
H        2.6828228273    0.5946020616   -0.1457659456
H        1.8589292699   -0.6308823190   -1.1133962843
H        0.5687047473    1.0808022909    1.0906416194
C       -0.6155797872   -0.4756617534    0.1809480221
H        0.3046389289    1.2449765162   -0.6352912803
H       -0.7544278650   -0.9024288169    1.1799206280
H       -0.4027913003   -1.3003620500   -0.5077872213
O       -1.8127827817    0.2178532995   -0.2500491473
H       -2.4737785735   -0.4795376757   -0.4591514718
$end

$rem
jobtype               opt
exchange              hf
correlation           rimp2
basis                 6-31g*
basis2                r64g
aux_basis             rimp2-vdz
dual_basis_energy     true
n_frozen_core         fc
mem_static            800
geom_opt_max_cycles   150
$end

$opt
constraint
tors 1 2 7 11 -150
tors 2 7 11 12 150
endconstraint
$end

