$molecule
0 1
C        1.6765735752   -0.4141441404   -0.1251231799
C        0.5823416192    0.5127650351    0.3970431066
H        1.3262445264   -1.4475232427   -0.1493469824
H        2.5669840361   -0.3729406798    0.5046035962
H        1.9681375755   -0.1319551821   -1.1384664035
H        0.3269008720    0.2749382445    1.4307875284
C       -0.6973443597    0.4388908538   -0.4315225067
H        0.9561432015    1.5411766458    0.3877761869
H       -0.4768198643    0.1847432101   -1.4714731495
H       -1.2116335112    1.4029962532   -0.4286713453
O       -1.5779559880   -0.5873008435    0.1050859894
H       -2.4097450025   -0.1353870422    0.3603578154
$end

$rem
jobtype               opt
exchange              hf
correlation           rimp2
basis                 6-31g*
basis2                r64g
aux_basis             rimp2-vdz
dual_basis_energy     true
n_frozen_core         fc
mem_static            800
geom_opt_max_cycles   150
$end

$opt
constraint
tors 1 2 7 11 90
tors 2 7 11 12 135
endconstraint
$end

