$molecule
0 1
C        1.5522454383   -0.5045215602    0.0903495474
C        0.6309824189    0.6353847736   -0.3316182077
H        1.7454819054   -0.4687817504    1.1644746497
H        2.5114402392   -0.4467162777   -0.4266795073
H        1.0928946457   -1.4654352476   -0.1395647976
H        1.0876210643    1.6004260527   -0.0906372319
C       -0.7228386637    0.5580163123    0.3487314788
H        0.4753312031    0.6125755905   -1.4125389992
H       -1.3509646646    1.3989357172    0.0428664755
H       -0.6119310634    0.5985991314    1.4370680996
O       -1.3508454013   -0.7020754358   -0.0104319896
H       -2.2831869725   -0.4967920084   -0.2373994144
$end

$rem
jobtype               opt
exchange              hf
correlation           rimp2
basis                 6-31g*
basis2                r64g
aux_basis             rimp2-vdz
dual_basis_energy     true
n_frozen_core         fc
mem_static            800
geom_opt_max_cycles   150
$end

$opt
constraint
tors 1 2 7 11 -60
tors 2 7 11 12 -150
endconstraint
$end

