$molecule
0 1
C        1.8240895622   -0.1169570673   -0.2748523834
C        0.5597323770    0.4729663679    0.3456544767
H        2.1412235158   -1.0175051037    0.2551736408
H        2.6496965071    0.5960894405   -0.2429121480
H        1.6495879093   -0.3854416807   -1.3182480670
H        0.7586306396    0.7713111523    1.3773116071
C       -0.6359786310   -0.4820705674    0.2914478868
H        0.2685530369    1.3761194515   -0.1929696487
H       -0.9930420884   -0.7219528716    1.2966266987
H       -0.3627444207   -1.4241747396   -0.1953780966
O       -1.6932656391    0.1574657798   -0.4717919022
H       -2.5424410126   -0.1822225683   -0.1128398329
$end

$rem
jobtype               opt
exchange              hf
correlation           rimp2
basis                 6-31g*
basis2                r64g
aux_basis             rimp2-vdz
dual_basis_energy     true
n_frozen_core         fc
mem_static            800
geom_opt_max_cycles   150
$end

$opt
constraint
tors 1 2 7 11 -135
tors 2 7 11 12 -150
endconstraint
$end

