$molecule
0 1
C        1.5236936954   -0.5144592395   -0.1236079824
C        0.6236205044    0.6413072339    0.3009028599
H        1.0765148087   -1.4660849913    0.1621357976
H        2.5068402799   -0.4394179215    0.3438517720
H        1.6644828039   -0.5173113849   -1.2064472693
H        0.5078643859    0.6497151677    1.3869896348
C       -0.7539566304    0.5533058076   -0.3284136372
H        1.0759802980    1.5964931893    0.0162369982
H       -0.6813089292    0.5647048477   -1.4206871743
H       -1.3671584147    1.4053487786   -0.0230837295
O       -1.3745298537   -0.6934069309    0.0860256155
H       -2.2972644107   -0.4772889354    0.3405488586
$end

$rem
jobtype               opt
exchange              hf
correlation           rimp2
basis                 6-31g*
basis2                r64g
aux_basis             rimp2-vdz
dual_basis_energy     true
n_frozen_core         fc
mem_static            800
geom_opt_max_cycles   150
$end

$opt
constraint
tors 1 2 7 11 75
tors 2 7 11 12 135
endconstraint
$end

