$molecule
0 1
C        1.8247926271   -0.1243351539   -0.2416637776
C        0.5386393453    0.4889827227    0.3087102668
H        2.1148781680   -1.0077262291    0.3305170773
H        2.6514942418    0.5865105699   -0.1995049298
H        1.6889018789   -0.4277773076   -1.2807958559
H        0.6963999714    0.8642650378    1.3221235329
C       -0.6410089883   -0.4911954546    0.2750981562
H        0.2892397634    1.3598356373   -0.3059052064
H       -0.8428396836   -0.8928025662    1.2710321013
H       -0.4033708563   -1.3336243176   -0.3804229701
O       -1.8764474598    0.0840224865   -0.2223144565
H       -1.6835894252    1.0201451973   -0.4407103745
$end

$rem
jobtype               opt
exchange              hf
correlation           rimp2
basis                 6-31g*
basis2                r64g
aux_basis             rimp2-vdz
dual_basis_energy     true
n_frozen_core         fc
mem_static            800
geom_opt_max_cycles   150
$end

$opt
constraint
tors 1 2 7 11 -135
tors 2 7 11 12 15
endconstraint
$end

