$molecule
0 1
C        1.7477725478   -0.3522944940   -0.1400998100
C        0.5692928781    0.4282706324    0.4370765957
H        1.4765442676   -1.3972143598   -0.3012348468
H        2.6076913846   -0.3262379463    0.5314887074
H        2.0593545560    0.0665545277   -1.0989023111
H        0.2881064564    0.0343119101    1.4145598416
C       -0.6761092552    0.3766488596   -0.4516384391
H        0.8708317678    1.4681587501    0.5880847383
H       -0.4297916754    0.0174267572   -1.4552644169
H       -1.1149272774    1.3718939371   -0.5565193703
O       -1.6501055369   -0.5261783770    0.1413305766
H       -2.5189736913   -0.0732224203    0.0922578120
$end

$rem
jobtype               opt
exchange              hf
correlation           rimp2
basis                 6-31g*
basis2                r64g
aux_basis             rimp2-vdz
dual_basis_energy     true
n_frozen_core         fc
mem_static            800
geom_opt_max_cycles   150
$end

$opt
constraint
tors 1 2 7 11 120
tors 2 7 11 12 135
endconstraint
$end

