$molecule
0 1
C        1.6768750795   -0.4075298531   -0.1821956294
C        0.5930331065    0.4754868427    0.4311742985
H        1.3202128018   -1.4327911267   -0.2966935851
H        2.5750948609   -0.4263681148    0.4372299030
H        1.9557085593   -0.0364836596   -1.1695722299
H        0.3790139349    0.1712153169    1.4603372675
C       -0.7069447500    0.4728158812   -0.3719784602
H        0.9653801175    1.5019815047    0.4949181913
H       -0.5166480982    0.2977860761   -1.4316222311
H       -1.2083595110    1.4417021712   -0.2747636487
O       -1.6328407208   -0.5631892329    0.0413967696
H       -1.4663429004   -0.7090108857    0.9980784798
$end

$rem
jobtype               opt
exchange              hf
correlation           rimp2
basis                 6-31g*
basis2                r64g
aux_basis             rimp2-vdz
dual_basis_energy     true
n_frozen_core         fc
mem_static            800
geom_opt_max_cycles   150
$end

$opt
constraint
tors 1 2 7 11 75
tors 2 7 11 12 30
endconstraint
$end

