$molecule
0 1
C        1.4554413368   -0.5509755119    0.0376609791
C        0.6768836916    0.7524830681   -0.1197218438
H        1.3531423403   -0.9648997567    1.0442890773
H        2.5189127649   -0.3851967285   -0.1397042161
H        1.0998358124   -1.2934429454   -0.6748745831
H        1.0737736093    1.5229955860    0.5460817100
C       -0.8294403950    0.5974413782    0.1364628060
H        0.8283823078    1.1136248150   -1.1397613281
H       -1.4040085229    1.2925787549   -0.4747135329
H       -1.0571354906    0.8126419685    1.1855998345
O       -1.3393539363   -0.7153054405   -0.1981960395
H       -1.0344220224   -1.3097668930    0.5221554362
$end

$rem
jobtype               opt
exchange              hf
correlation           rimp2
basis                 6-31g*
basis2                r64g
aux_basis             rimp2-vdz
dual_basis_energy     true
n_frozen_core         fc
mem_static            800
geom_opt_max_cycles   150
$end

$opt
constraint
tors 1 2 7 11 -45
tors 2 7 11 12 75
endconstraint
$end

