$molecule
0 1
C        1.8980163992   -0.1297654592   -0.0178548486
C        0.5167104869    0.5195882123    0.0344605191
H        2.0764121043   -0.7542695871    0.8601697094
H        2.6859357461    0.6237038584   -0.0563912506
H        1.9931099556   -0.7615679345   -0.9027828748
H        0.4404513765    1.1827863336    0.9008975745
C       -0.6024662085   -0.5105450293    0.0769919146
H        0.3612501051    1.1366425049   -0.8530218716
H       -0.6224319999   -1.0340739624    1.0384589789
H       -0.4522550902   -1.2566487402   -0.7045215808
O       -1.8933582540    0.0716644397   -0.2211326138
H       -2.1550950080    0.5734682928    0.5832160549
$end

$rem
jobtype               opt
exchange              hf
correlation           rimp2
basis                 6-31g*
basis2                r64g
aux_basis             rimp2-vdz
dual_basis_energy     true
n_frozen_core         fc
mem_static            800
geom_opt_max_cycles   150
$end

$opt
constraint
tors 1 2 7 11 180
tors 2 7 11 12 -75
endconstraint
$end

