$molecule
0 1
C        1.8808447063   -0.1430774265   -0.1026169550
C        0.5204156953    0.5229880011    0.0915583640
H        2.1066051418   -0.8326043439    0.7139168768
H        2.6795138452    0.5991771922   -0.1408484324
H        1.9049381023   -0.7100871594   -1.0353052726
H        0.5144832097    1.1424672138    0.9906353326
C       -0.6088725772   -0.4907181299    0.1676876565
H        0.3100186655    1.1851234349   -0.7507509753
H       -0.6092121427   -1.0134293775    1.1290574522
H       -0.4792150647   -1.2411479558   -0.6176267856
O       -1.8743496796    0.1989401440   -0.0061172579
H       -2.4026431485   -0.3385599139   -0.6341112115
$end

$rem
jobtype               opt
exchange              hf
correlation           rimp2
basis                 6-31g*
basis2                r64g
aux_basis             rimp2-vdz
dual_basis_energy     true
n_frozen_core         fc
mem_static            800
geom_opt_max_cycles   150
$end

$opt
constraint
tors 1 2 7 11 180
tors 2 7 11 12 135
endconstraint
$end

