$molecule
0 1
C        1.8847739511   -0.1283899055   -0.1251758654
C        0.5293771774    0.5105293297    0.1675667986
H        2.1282088360   -0.9031651106    0.6055003835
H        2.6830223641    0.6149760374   -0.0984205557
H        1.8861637267   -0.5890794122   -1.1145903446
H        0.5423155684    1.0350909814    1.1247755301
C       -0.6093147980   -0.4978493790    0.1420642586
H        0.3080194436    1.2568800162   -0.5983501337
H       -0.7563685189   -0.9541264195    1.1260717700
H       -0.3889058864   -1.3017188370   -0.5694716210
O       -1.8007565400    0.2083756636   -0.2835075293
H       -2.5619754152   -0.3749145843   -0.0648426241
$end

$rem
jobtype               opt
exchange              hf
correlation           rimp2
basis                 6-31g*
basis2                r64g
aux_basis             rimp2-vdz
dual_basis_energy     true
n_frozen_core         fc
mem_static            800
geom_opt_max_cycles   150
$end

$opt
constraint
tors 1 2 7 11 -165
tors 2 7 11 12 -165
endconstraint
$end

