$molecule
0 1
C        1.4482150496   -0.5883850213   -0.0658373720
C        0.6970478676    0.7261410300    0.1194453671
H        1.0763014183   -1.3399219007    0.6266226356
H        2.5150863934   -0.4424040764    0.1119649652
H        1.3260544550   -0.9782205790   -1.0782981364
H        0.8524117809    1.0667769622    1.1463802010
C       -0.8065252402    0.6128440894   -0.1474305455
H        1.1079773016    1.5053992792   -0.5276405648
H       -1.0043410611    0.8173400326   -1.2032785794
H       -1.3657101412    1.3455505452    0.4407759366
O       -1.2800527995   -0.7213074916    0.1732579247
H       -1.8614635903   -0.9953856937   -0.5675073207
$end

$rem
jobtype               opt
exchange              hf
correlation           rimp2
basis                 6-31g*
basis2                r64g
aux_basis             rimp2-vdz
dual_basis_energy     true
n_frozen_core         fc
mem_static            800
geom_opt_max_cycles   150
$end

$opt
constraint
tors 1 2 7 11 30
tors 2 7 11 12 -150
endconstraint
$end

