$molecule
0 1
C        1.6681401746   -0.4356796809   -0.0833807304
C        0.5940946483    0.5426644761    0.3881948358
H        1.3202068708   -1.4691717293   -0.0157191955
H        2.5736866346   -0.3547284627    0.5200836183
H        1.9379508478   -0.2404530736   -1.1229936407
H        0.3495287399    0.3847134130    1.4400679944
C       -0.7025804281    0.4429669234   -0.4107533663
H        0.9854155025    1.5604471822    0.3015433365
H       -0.5035762361    0.2106200366   -1.4618649865
H       -1.2458726077    1.3875268260   -0.3740358482
O       -1.6293923914   -0.5125081743    0.1622169092
H       -1.2771655580   -1.4027533766   -0.0634617777
$end

$rem
jobtype               opt
exchange              hf
correlation           rimp2
basis                 6-31g*
basis2                r64g
aux_basis             rimp2-vdz
dual_basis_energy     true
n_frozen_core         fc
mem_static            800
geom_opt_max_cycles   150
$end

$opt
constraint
tors 1 2 7 11 75
tors 2 7 11 12 -75
endconstraint
$end

