$molecule
0 1
C        1.5890588048   -0.4889771107   -0.1369704435
C        0.6175023199    0.5898321809    0.3312966379
H        1.1619445306   -1.4795204066    0.0226471991
H        2.5345732818   -0.4321206290    0.4048869950
H        1.8044190715   -0.3781954576   -1.2016096389
H        0.4435486056    0.5170496574    1.4065575462
C       -0.7269091379    0.5030575829   -0.3645765188
H        1.0454219561    1.5785208598    0.1405158412
H       -0.5982911280    0.3645408611   -1.4436883249
H       -1.3024189743    1.4212795483   -0.2050729699
O       -1.4304001525   -0.6227864953    0.2163634574
H       -2.3000781956   -0.6706864762   -0.2409872513
$end

$rem
jobtype               opt
exchange              hf
correlation           rimp2
basis                 6-31g*
basis2                r64g
aux_basis             rimp2-vdz
dual_basis_energy     true
n_frozen_core         fc
mem_static            800
geom_opt_max_cycles   150
$end

$opt
constraint
tors 1 2 7 11 75
tors 2 7 11 12 -165
endconstraint
$end

