$molecule
0 1
C        1.6708523576   -0.4476249694    0.0751098507
C        0.6008505167    0.5513562657   -0.3545977306
H        1.9600039396   -0.2812842636    1.1146450398
H        2.5674116134   -0.3605941613   -0.5409976917
H        1.2967493541   -1.4690461219   -0.0149898402
H        0.9893219575    1.5671081439   -0.2374107267
C       -0.6862536267    0.4158737329    0.4451216824
H        0.3472981856    0.4264495858   -1.4087258176
H       -1.2114255623    1.3742451218    0.5115153842
H       -0.4763349838    0.0761855975    1.4635316024
O       -1.5347822164   -0.5349711647   -0.2518174574
H       -2.0821649440   -0.9799577387    0.4324504696
$end

$rem
jobtype               opt
exchange              hf
correlation           rimp2
basis                 6-31g*
basis2                r64g
aux_basis             rimp2-vdz
dual_basis_energy     true
n_frozen_core         fc
mem_static            800
geom_opt_max_cycles   150
$end

$opt
constraint
tors 1 2 7 11 -90
tors 2 7 11 12 135
endconstraint
$end

