$molecule
0 1
C        1.8124525113   -0.1854026825    0.2618642280
C        0.5688105129    0.5296500413   -0.2626205949
H        1.6192242363   -0.6117489593    1.2475872334
H        2.6579957618    0.4990969787    0.3479880435
H        2.1072341926   -0.9985272462   -0.4043786814
H        0.3110934957    1.3428460931    0.4198843912
C       -0.6517707729   -0.3983394193   -0.3679534294
H        0.7857106605    0.9861805024   -1.2315391604
H       -0.4188851501   -1.3913022796    0.0170633789
H       -0.9723117377   -0.5136972806   -1.4083974509
O       -1.7667320948    0.0397525551    0.4455987752
H       -2.0000684784    0.9358305043    0.1137206050
$end

$rem
jobtype               opt
exchange              hf
correlation           rimp2
basis                 6-31g*
basis2                r64g
aux_basis             rimp2-vdz
dual_basis_energy     true
n_frozen_core         fc
mem_static            800
geom_opt_max_cycles   150
$end

$opt
constraint
tors 1 2 7 11 120
tors 2 7 11 12 45
endconstraint
$end

