$molecule
0 1
C        1.6172540977   -0.4652510608    0.1188532470
C        0.6124724460    0.5684365469   -0.3808242106
H        1.8687496139   -0.2834091733    1.1655865933
H        2.5416042093   -0.4306630901   -0.4601637752
H        1.2010256154   -1.4700758616    0.0390078600
H        1.0342408230    1.5721050094   -0.2718178927
C       -0.7024325766    0.5128517932    0.3731564713
H        0.3969388493    0.4221190137   -1.4407406350
H       -1.2920931195    1.4132259543    0.1722458219
H       -0.5341718228    0.4503602160    1.4539375152
O       -1.4176023427   -0.6569162727   -0.0987313204
H       -2.3474524813   -0.5524335803    0.2032468529
$end

$rem
jobtype               opt
exchange              hf
correlation           rimp2
basis                 6-31g*
basis2                r64g
aux_basis             rimp2-vdz
dual_basis_energy     true
n_frozen_core         fc
mem_static            800
geom_opt_max_cycles   150
$end

$opt
constraint
tors 1 2 7 11 -60
tors 2 7 11 12 -165
endconstraint
$end

