$molecule
0 1
C        1.8840079428   -0.1181554376   -0.0635229087
C        0.5004758902    0.5150722167    0.0654805381
H        2.0931747177   -0.7817554463    0.7779791621
H        2.6642592564    0.6436228345   -0.0904495303
H        1.9536783891   -0.7058255682   -0.9802453910
H        0.4547508093    1.1512284463    0.9543577239
C       -0.6086183761   -0.5239261404    0.1286857005
H        0.3113667819    1.1557814158   -0.8000606873
H       -0.5895909995   -1.0431281639    1.0930933189
H       -0.4788642367   -1.2692749568   -0.6577523516
O       -1.9208113491    0.0460401153   -0.0969212509
H       -1.8748407264    0.9701665670    0.2346904461
$end

$rem
jobtype               opt
exchange              hf
correlation           rimp2
basis                 6-31g*
basis2                r64g
aux_basis             rimp2-vdz
dual_basis_energy     true
n_frozen_core         fc
mem_static            800
geom_opt_max_cycles   150
$end

$opt
constraint
tors 1 2 7 11 -150
tors 2 7 11 12 -30
endconstraint
$end

