$molecule
0 1
C        1.7010203087   -0.4059886129    0.1200925943
C        0.5933216352    0.4906078308   -0.4266954248
H        2.0014976511   -0.0821376983    1.1182953853
H        2.5839119451   -0.3816155378   -0.5210051398
H        1.3602159302   -1.4405169587    0.1881239185
H        0.9590751796    1.5205655395   -0.4694203406
C       -0.6732796385    0.4509559126    0.4184704004
H        0.3203923459    0.2045647968   -1.4433853536
H       -1.2030388018    1.4053456370    0.3470044425
H       -0.4429157040    0.2731606023    1.4739726281
O       -1.5222191207   -0.6111784133   -0.0925467587
H       -2.4480660505   -0.3363247911    0.0858477873
$end

$rem
jobtype               opt
exchange              hf
correlation           rimp2
basis                 6-31g*
basis2                r64g
aux_basis             rimp2-vdz
dual_basis_energy     true
n_frozen_core         fc
mem_static            800
geom_opt_max_cycles   150
$end

$opt
constraint
tors 1 2 7 11 -90
tors 2 7 11 12 -135
endconstraint
$end

