$molecule
0 1
C        1.6845750059   -0.4232230517    0.1174664133
C        0.5951590650    0.5073888953   -0.4077900993
H        1.9817728142   -0.1381748713    1.1284681151
H        2.5730782479   -0.3911251513   -0.5154528837
H        1.3260301513   -1.4535434982    0.1465660268
H        0.9704900521    1.5345437352   -0.4082090788
C       -0.6816290589    0.4472967800    0.4169373298
H        0.3319594562    0.2630572241   -1.4382186364
H       -1.2121949145    1.4046600055    0.3792716522
H       -0.4630550136    0.2228506441    1.4663501966
O       -1.5135741550   -0.5869390223   -0.1669231046
H       -2.3352740116   -0.6170026274    0.3735463640
$end

$rem
jobtype               opt
exchange              hf
correlation           rimp2
basis                 6-31g*
basis2                r64g
aux_basis             rimp2-vdz
dual_basis_energy     true
n_frozen_core         fc
mem_static            800
geom_opt_max_cycles   150
$end

$opt
constraint
tors 1 2 7 11 -90
tors 2 7 11 12 -165
endconstraint
$end

