$molecule
0 1
C        1.5301593692   -0.5192138309   -0.0618483220
C        0.6286758761    0.6589079436    0.2967599582
H        1.1298433532   -1.4503219732    0.3412688063
H        2.5320680379   -0.3874760156    0.3490153818
H        1.6258602398   -0.6261549514   -1.1452273275
H        0.5244752007    0.7258315420    1.3819027425
C       -0.7601881060    0.5469538085   -0.3149847924
H        1.0827367173    1.5948384673   -0.0423802409
H       -0.6997319182    0.5713249735   -1.4085365349
H       -1.3907247371    1.3767301277    0.0053005257
O       -1.4587622730   -0.6432850987    0.1209671895
H       -1.0475170174   -1.3904277239   -0.3672019767
$end

$rem
jobtype               opt
exchange              hf
correlation           rimp2
basis                 6-31g*
basis2                r64g
aux_basis             rimp2-vdz
dual_basis_energy     true
n_frozen_core         fc
mem_static            800
geom_opt_max_cycles   150
$end

$opt
constraint
tors 1 2 7 11 75
tors 2 7 11 12 -75
endconstraint
$end

