$molecule
0 1
C       -1.7745071730   -0.0553205962    0.3390323821
C       -0.5625078735    0.3631380956   -0.4907147631
H       -2.0745803822   -1.0766352924    0.0983627310
H       -2.6285732477    0.5974902090    0.1512018851
H       -1.5466768302   -0.0169256333    1.4058939182
H       -0.8251758761    0.3524331367   -1.5510466938
C        0.6670716969   -0.5264611355   -0.2441665690
H       -0.3053242290    1.4018911771   -0.2628366583
H        0.9941456200   -1.0119527046   -1.1652119610
H        0.4181402051   -1.3132027529    0.4749978001
O        1.8243527395    0.1882686607    0.2598286545
H        1.5018043503    1.0621099788    0.5668861407
$end

$rem
jobtype               opt
exchange              hf
correlation           rimp2
basis                 6-31g*
basis2                r64g
aux_basis             rimp2-vdz
dual_basis_energy     true
n_frozen_core         fc
mem_static            800
geom_opt_max_cycles   150
$end

$opt
constraint
tors 1 2 7 11 -120
tors 2 7 11 12 30
endconstraint
$end

