$molecule
0 1
C        1.6894120024   -0.4232402300   -0.1052057824
C        0.6076678059    0.5368573950    0.3807745532
H        1.3307496001   -1.4534140290   -0.0687258283
H        2.5893339713   -0.3552535306    0.5084325451
H        1.9671893333   -0.1978788008   -1.1363805871
H        0.3812963664    0.3654882723    1.4351927573
C       -0.6908814013    0.4077057635   -0.4154953279
H        0.9801510317    1.5626869186    0.3000497744
H       -0.4918547710    0.0561362869   -1.4288353825
H       -1.2018382475    1.3714853018   -0.4936462380
O       -1.5848122888   -0.5722011936    0.1741754945
H       -2.1418069611   -0.0761102376    0.8127547849
$end

$rem
jobtype               opt
exchange              hf
correlation           rimp2
basis                 6-31g*
basis2                r64g
aux_basis             rimp2-vdz
dual_basis_energy     true
n_frozen_core         fc
mem_static            800
geom_opt_max_cycles   150
$end

$opt
constraint
tors 1 2 7 11 90
tors 2 7 11 12 75
endconstraint
$end

