$molecule
0 1
C        1.4542871538   -0.5557667941    0.0930179635
C        0.6408065605    0.6899633894   -0.2434902128
H        1.4881659156   -0.7178473778    1.1719767966
H        2.4793329838   -0.4597823011   -0.2683204398
H        1.0099667938   -1.4414292169   -0.3580775535
H        1.1073336807    1.5838480276    0.1803003323
C       -0.7963876045    0.6101688862    0.2584154362
H        0.6334696942    0.8334861910   -1.3291539859
H       -1.3971149801    1.4277466960   -0.1537931225
H       -0.8228323437    0.6880009755    1.3460666587
O       -1.4198939941   -0.6660172712   -0.0150140610
H       -1.4042883562   -0.7668253746   -0.9944522045
$end

$rem
jobtype               opt
exchange              hf
correlation           rimp2
basis                 6-31g*
basis2                r64g
aux_basis             rimp2-vdz
dual_basis_energy     true
n_frozen_core         fc
mem_static            800
geom_opt_max_cycles   150
$end

$opt
constraint
tors 1 2 7 11 -30
tors 2 7 11 12 -60
endconstraint
$end

