$molecule
0 1
C        1.4145653523   -0.6007305440   -0.0185327994
C        0.7021514728    0.7490788631   -0.0554360987
H        1.1969973611   -1.1360320208    0.9045494848
H        2.4937153456   -0.4517656952   -0.0869652946
H        1.1009277174   -1.2338678275   -0.8471649615
H        1.0884152626    1.3804682863    0.7477957781
C       -0.8313192975    0.6526063165    0.0723056226
H        0.9555196703    1.2583048923   -0.9884170184
H       -1.3131352623    1.1064369784   -0.7964732925
H       -1.1785995489    1.1938957813    0.9562810386
O       -1.2556613391   -0.7309585187    0.2012965746
H       -2.0233436766   -0.8442200907   -0.3990978478
$end

$rem
jobtype               opt
exchange              hf
correlation           rimp2
basis                 6-31g*
basis2                r64g
aux_basis             rimp2-vdz
dual_basis_energy     true
n_frozen_core         fc
mem_static            800
geom_opt_max_cycles   150
$end

$opt
constraint
tors 1 2 7 11 0
tors 2 7 11 12 -150
endconstraint
$end

