$molecule
0 1
C        1.4743213251   -0.5631889701   -0.0805050308
C        0.6779585023    0.7095656646    0.1854056622
H        1.0615279917   -1.3904043904    0.4935326454
H        2.5208136200   -0.4313634102    0.1987695081
H        1.4435286978   -0.8353225577   -1.1383786706
H        0.7290326627    0.9402964057    1.2524854125
C       -0.7865451639    0.5860862529   -0.2184225462
H        1.1131109184    1.5635046658   -0.3417250605
H       -0.8783729333    0.6562318240   -1.3058852648
H       -1.3800362762    1.3932578699    0.2177467442
O       -1.3363353463   -0.6781104821    0.2382799052
H       -1.6354169886   -1.1595294734   -0.5618094765
$end

$rem
jobtype               opt
exchange              hf
correlation           rimp2
basis                 6-31g*
basis2                r64g
aux_basis             rimp2-vdz
dual_basis_energy     true
n_frozen_core         fc
mem_static            800
geom_opt_max_cycles   150
$end

$opt
constraint
tors 1 2 7 11 60
tors 2 7 11 12 -120
endconstraint
$end

