$molecule
0 1
C        1.8951328402   -0.1360741324    0.1014881539
C        0.5418046685    0.5336510450   -0.1282815761
H        1.9252341457   -0.6246365718    1.0773762738
H        2.7065798696    0.5922754082    0.0656578621
H        2.0961010523   -0.8949652734   -0.6579587941
H        0.3600183209    1.2691974273    0.6590149755
C       -0.6065620139   -0.4653439033   -0.1062570452
H        0.5292638971    1.0772449642   -1.0748205506
H       -0.4707332925   -1.1777509864    0.7124869527
H       -0.6439581868   -1.0368109967   -1.0360628607
O       -1.8819813418    0.2145930097    0.0265042099
H       -2.1744266080    0.0743573064    0.9522095153
$end

$rem
jobtype               opt
exchange              hf
correlation           rimp2
basis                 6-31g*
basis2                r64g
aux_basis             rimp2-vdz
dual_basis_energy     true
n_frozen_core         fc
mem_static            800
geom_opt_max_cycles   150
$end

$opt
constraint
tors 1 2 7 11 165
tors 2 7 11 12 -120
endconstraint
$end

