$molecule
0 1
C        1.6582456246   -0.4499097850   -0.1029348314
C        0.6169765708    0.5702108452    0.3484856627
H        1.2799001008   -1.4663964880    0.0228086307
H        2.5800986468   -0.3624946033    0.4745086722
H        1.9071591106   -0.3080923742   -1.1565138882
H        0.4024590239    0.4685927497    1.4135156917
C       -0.7032731295    0.4408720184   -0.4001592808
H        1.0151083735    1.5778574314    0.1965718948
H       -0.5412397135    0.1138757963   -1.4303247488
H       -1.2217497760    1.4024169162   -0.4340965647
O       -1.5773036375   -0.4810594641    0.3086216509
H       -1.7769359435   -1.2184954845   -0.3070797254
$end

$rem
jobtype               opt
exchange              hf
correlation           rimp2
basis                 6-31g*
basis2                r64g
aux_basis             rimp2-vdz
dual_basis_energy     true
n_frozen_core         fc
mem_static            800
geom_opt_max_cycles   150
$end

$opt
constraint
tors 1 2 7 11 90
tors 2 7 11 12 -135
endconstraint
$end

