$molecule
0 1
C        1.6238804982   -0.4598793767    0.1119015047
C        0.6116246222    0.5687847232   -0.3831967432
H        1.8797585534   -0.2757133203    1.1571152325
H        2.5450445684   -0.4219962878   -0.4719856786
H        1.2121753005   -1.4669815745    0.0355863200
H        1.0321260189    1.5737016442   -0.2789219557
C       -0.6971199281    0.5102462005    0.3829593340
H        0.3884070766    0.4193343118   -1.4409536506
H       -1.2870944597    1.4104998240    0.1866319150
H       -0.5210068751    0.4494804986    1.4621682713
O       -1.4237589813   -0.6621509175   -0.0702430936
H       -2.3783967788   -0.4507403630    0.0220830006
$end

$rem
jobtype               opt
exchange              hf
correlation           rimp2
basis                 6-31g*
basis2                r64g
aux_basis             rimp2-vdz
dual_basis_energy     true
n_frozen_core         fc
mem_static            800
geom_opt_max_cycles   150
$end

$opt
constraint
tors 1 2 7 11 -75
tors 2 7 11 12 -165
endconstraint
$end

