$molecule
0 1
C        1.4175388972   -0.5967582742   -0.0155337223
C        0.6971344346    0.7492916872   -0.0497096567
H        1.1983056809   -1.1379188559    0.9037229453
H        2.4959723527   -0.4395320133   -0.0759824362
H        1.1132717880   -1.2272140206   -0.8495385295
H        1.0752069646    1.3775495402    0.7598731560
C       -0.8354563306    0.6465002615    0.0656313064
H        0.9535658450    1.2653354138   -0.9778469360
H       -1.3106068170    1.0911628894   -0.8125363012
H       -1.1960781782    1.1909791478    0.9433886524
O       -1.2338760727   -0.7443782135    0.1820926772
H       -2.1257337839   -0.8075104511   -0.2245053860
$end

$rem
jobtype               opt
exchange              hf
correlation           rimp2
basis                 6-31g*
basis2                r64g
aux_basis             rimp2-vdz
dual_basis_energy     true
n_frozen_core         fc
mem_static            800
geom_opt_max_cycles   150
$end

$opt
constraint
tors 1 2 7 11 -15
tors 2 7 11 12 -150
endconstraint
$end

