$molecule
0 1
C        1.8746429471   -0.1604891587    0.1589461381
C        0.5514345217    0.5374514401   -0.1493857919
H        1.8258831810   -0.6687764009    1.1237545150
H        2.6975284444    0.5550707441    0.1968920016
H        2.1192234114   -0.9068142900   -0.6003863392
H        0.3209337720    1.2468761016    0.6475632538
C       -0.6167709003   -0.4396978646   -0.2277419981
H        0.6233329688    1.1133499934   -1.0740829966
H       -0.4257601103   -1.2887777155    0.4348140427
H       -0.7454885728   -0.8338160326   -1.2400092878
O       -1.8351151909    0.2355861660    0.1847746358
H       -2.3027281180   -0.3774953695    0.7912272442
$end

$rem
jobtype               opt
exchange              hf
correlation           rimp2
basis                 6-31g*
basis2                r64g
aux_basis             rimp2-vdz
dual_basis_energy     true
n_frozen_core         fc
mem_static            800
geom_opt_max_cycles   150
$end

$opt
constraint
tors 1 2 7 11 150
tors 2 7 11 12 -150
endconstraint
$end

