$molecule
0 1
C        1.5810402240   -0.4996563213   -0.1115458817
C        0.6329305043    0.6182235450    0.3086450735
H        1.1453373607   -1.4714660363    0.1238239410
H        2.5399872335   -0.4228767366    0.4033708379
H        1.7730218526   -0.4616299999   -1.1859767440
H        0.4799644692    0.6078130317    1.3897424711
C       -0.7272775752    0.5047961158   -0.3544304372
H        1.0680700125    1.5898400499    0.0552563845
H       -0.6169732365    0.3129170315   -1.4253876238
H       -1.2981878775    1.4304948862   -0.2348370689
O       -1.4600942966   -0.5719091149    0.2904406601
H       -1.8709029029   -1.1056963618   -0.4235724154
$end

$rem
jobtype               opt
exchange              hf
correlation           rimp2
basis                 6-31g*
basis2                r64g
aux_basis             rimp2-vdz
dual_basis_energy     true
n_frozen_core         fc
mem_static            800
geom_opt_max_cycles   150
$end

$opt
constraint
tors 1 2 7 11 75
tors 2 7 11 12 -150
endconstraint
$end

