$molecule
0 1
C        1.4099575074   -0.6049412423   -0.0167151305
C        0.7077405432    0.7495958849   -0.0625594608
H        1.1881533158   -1.1316651884    0.9102173975
H        2.4903681745   -0.4681903509   -0.0895323854
H        1.0917195339   -1.2429336688   -0.8406539046
H        1.0988292465    1.3847880152    0.7351613534
C       -0.8281158664    0.6584631429    0.0731227984
H        0.9631758653    1.2500894111   -1.0001289120
H       -1.3236614067    1.1379131439   -0.7736574196
H       -1.1571860986    1.1762280776    0.9751963730
O       -1.3037601842   -0.7057231856    0.2183673867
H       -1.7002817293   -0.9576234446   -0.6432405847
$end

$rem
jobtype               opt
exchange              hf
correlation           rimp2
basis                 6-31g*
basis2                r64g
aux_basis             rimp2-vdz
dual_basis_energy     true
n_frozen_core         fc
mem_static            800
geom_opt_max_cycles   150
$end

$opt
constraint
tors 1 2 7 11 0
tors 2 7 11 12 -90
endconstraint
$end

