$molecule
0 1
C        1.8898959514   -0.1159894339    0.0242576248
C        0.4988341729    0.5102934890   -0.0429552635
H        2.0205435349   -0.6775443224    0.9512817357
H        2.6675097307    0.6477484821   -0.0180157421
H        2.0486727401   -0.8028871696   -0.8091074691
H        0.3738487637    1.2113411016    0.7887925685
C       -0.6055861975   -0.5316942281    0.0270643187
H        0.3797083636    1.0851116028   -0.9641901732
H       -0.5016231858   -1.1266242445    0.9419046750
H       -0.5544673655   -1.2117578978   -0.8238935102
O       -1.9261881144    0.0542980334   -0.0360583221
H       -1.9035761783    0.8251724805    0.5743683109
$end

$rem
jobtype               opt
exchange              hf
correlation           rimp2
basis                 6-31g*
basis2                r64g
aux_basis             rimp2-vdz
dual_basis_energy     true
n_frozen_core         fc
mem_static            800
geom_opt_max_cycles   150
$end

$opt
constraint
tors 1 2 7 11 180
tors 2 7 11 12 -60
endconstraint
$end

