$molecule
0 1
C        1.4823436266   -0.5594930837    0.0880018560
C        0.6588235826    0.6794010168   -0.2482091600
H        1.5000764493   -0.7392274263    1.1651252656
H        2.5128959263   -0.4386699318   -0.2500981884
H        1.0575257281   -1.4388658622   -0.3912626790
H        1.1136898903    1.5785750469    0.1765152761
C       -0.7747873373    0.5902931179    0.2499292203
H        0.6472251355    0.8151762789   -1.3327212287
H       -1.3963578869    1.3697056279   -0.2031420632
H       -0.7950520582    0.7309294539    1.3363331757
O       -1.2881167491   -0.7239195597   -0.0757545580
H       -2.1040287183   -0.8387054199    0.4605110402
$end

$rem
jobtype               opt
exchange              hf
correlation           rimp2
basis                 6-31g*
basis2                r64g
aux_basis             rimp2-vdz
dual_basis_energy     true
n_frozen_core         fc
mem_static            800
geom_opt_max_cycles   150
$end

$opt
constraint
tors 1 2 7 11 -45
tors 2 7 11 12 150
endconstraint
$end

