$molecule
0 1
C        1.8577767806   -0.1272382655    0.1835075698
C        0.5214585534    0.4938217627   -0.2187079195
H        1.8072122108   -0.5244169916    1.1988817300
H        2.6620572230    0.6091160790    0.1487579196
H        2.1300532721   -0.9487485586   -0.4825060263
H        0.2830795809    1.2959213848    0.4861697918
C       -0.6264093047   -0.5165649178   -0.1885871986
H        0.5855941832    0.9616973670   -1.2028595446
H       -0.4090064203   -1.3034059574    0.5428567751
H       -0.7671919342   -0.9951787183   -1.1574135187
O       -1.9020972444    0.0900399536    0.1209099387
H       -1.7899823701    0.4959516897    1.0094420653
$end

$rem
jobtype               opt
exchange              hf
correlation           rimp2
basis                 6-31g*
basis2                r64g
aux_basis             rimp2-vdz
dual_basis_energy     true
n_frozen_core         fc
mem_static            800
geom_opt_max_cycles   150
$end

$opt
constraint
tors 1 2 7 11 135
tors 2 7 11 12 -60
endconstraint
$end

