$molecule
0 1
C        1.8619638438   -0.1237058784   -0.1522278759
C        0.5146752961    0.5118506684    0.1852796544
H        2.1246173553   -0.8997536894    0.5696755351
H        2.6604233461    0.6196288647   -0.1477447254
H        1.8297223008   -0.5822375942   -1.1415476043
H        0.5648050861    1.0470496856    1.1366589917
C       -0.6207297243   -0.5082260541    0.2115034833
H        0.2831367193    1.2519234757   -0.5868561990
H       -0.7049714536   -0.9673408037    1.2010893405
H       -0.4257009999   -1.3038391549   -0.5111100891
O       -1.9055016896    0.0533372918   -0.1587018249
H       -1.8053321942    1.0286624470   -0.1130407615
$end

$rem
jobtype               opt
exchange              hf
correlation           rimp2
basis                 6-31g*
basis2                r64g
aux_basis             rimp2-vdz
dual_basis_energy     true
n_frozen_core         fc
mem_static            800
geom_opt_max_cycles   150
$end

$opt
constraint
tors 1 2 7 11 -150
tors 2 7 11 12 -30
endconstraint
$end

