$molecule
0 1
C        1.4386693001   -0.5962500953   -0.0228409753
C        0.7101549654    0.7429856613    0.0444470383
H        1.1147014161   -1.2529292516    0.7817952699
H        2.5156155645   -0.4408276137    0.0627861824
H        1.2452154420   -1.1090301980   -0.9659095410
H        0.9616025114    1.2236390988    0.9927861908
C       -0.8218185141    0.6238303807   -0.0700961695
H        1.0773375697    1.4095091331   -0.7398277311
H       -1.1526967748    0.9723508021   -1.0509822740
H       -1.3149029860    1.2470032989    0.6788305069
O       -1.2749844685   -0.7418539690    0.1310775845
H       -1.7361257725   -1.0078448139   -0.6922252301
$end

$rem
jobtype               opt
exchange              hf
correlation           rimp2
basis                 6-31g*
basis2                r64g
aux_basis             rimp2-vdz
dual_basis_energy     true
n_frozen_core         fc
mem_static            800
geom_opt_max_cycles   150
$end

$opt
constraint
tors 1 2 7 11 30
tors 2 7 11 12 -120
endconstraint
$end

