$molecule
0 1
C        1.4250409577   -0.6007766972   -0.0066101064
C        0.6988111816    0.7425543224   -0.0121837607
H        1.1967190788   -1.1676981969    0.8944871940
H        2.5033967790   -0.4371469262   -0.0487522401
H        1.1343496952   -1.2096060311   -0.8615140235
H        1.0374500871    1.3324167980    0.8427164399
C       -0.8369617009    0.6288319372    0.0273553113
H        0.9927311613    1.3035547183   -0.9021129985
H       -1.2842645743    1.1008695067   -0.8524377666
H       -1.2302728886    1.1419007766    0.9087011605
O       -1.2325838980   -0.7672701441    0.0612842990
H       -2.0813565014   -0.7982890470    0.5545881734
$end

$rem
jobtype               opt
exchange              hf
correlation           rimp2
basis                 6-31g*
basis2                r64g
aux_basis             rimp2-vdz
dual_basis_energy     true
n_frozen_core         fc
mem_static            800
geom_opt_max_cycles   150
$end

$opt
constraint
tors 1 2 7 11 15
tors 2 7 11 12 150
endconstraint
$end

