$molecule
0 1
C        1.4311271806   -0.6008302090   -0.0028393626
C        0.6988717058    0.7366501077   -0.0685533810
H        1.2685210460   -1.0997358655    0.9537631370
H        2.5050305172   -0.4475490968   -0.1225140133
H        1.0836225836   -1.2696866902   -0.7875761285
H        1.0964535396    1.4188248268    0.6870785389
C       -0.8286667031    0.6164258249    0.1067469141
H        0.9121013981    1.1977017304   -1.0356623517
H       -1.3488678476    1.2080509848   -0.6477503217
H       -1.1320401823    0.9986347460    1.0841507562
O       -1.3065861180   -0.7460076397   -0.0466221798
H       -1.5127406366   -1.0714432199    0.8554695697
$end

$rem
jobtype               opt
exchange              hf
correlation           rimp2
basis                 6-31g*
basis2                r64g
aux_basis             rimp2-vdz
dual_basis_energy     true
n_frozen_core         fc
mem_static            800
geom_opt_max_cycles   150
$end

$opt
constraint
tors 1 2 7 11 0
tors 2 7 11 12 105
endconstraint
$end

