$molecule
0 1
C        1.4445471338   -0.5563167733   -0.0056796010
C        0.6667954999    0.7593986277    0.0008118270
H        1.2165063440   -1.1674611211    0.8700269587
H        2.5161379206   -0.3538766248    0.0128307275
H        1.2426626072   -1.1424680699   -0.9045778140
H        0.9588594297    1.3281510611    0.8858168943
C       -0.8756403699    0.6226984971   -0.0246043732
H        0.9849275796    1.3502454293   -0.8604948730
H       -1.2787211327    1.1295777563   -0.9041102519
H       -1.3049606666    1.1042012343    0.8567770675
O       -1.3998610263   -0.7282663928   -0.0514330776
H       -0.6378500134   -1.3425750807   -0.0483846750
$end

$rem
jobtype               opt
exchange              hf
correlation           rimp2
basis                 6-31g*
basis2                r64g
aux_basis             rimp2-vdz
dual_basis_energy     true
n_frozen_core         fc
mem_static            800
geom_opt_max_cycles   150
$end

$opt
constraint
tors 1 2 7 11 0
tors 2 7 11 12 -15
endconstraint
$end

