$molecule
0 1
C        1.8935555879   -0.1295198601    0.1067226180
C        0.5397392913    0.5268542973   -0.1564504169
H        1.9215038995   -0.5746105210    1.1032016138
H        2.7041110619    0.5976781590    0.0408382872
H        2.0972228051   -0.9209369608   -0.6179015538
H        0.3591440734    1.2987659819    0.5963828674
C       -0.6083110842   -0.4720170046   -0.0911268153
H        0.5275769710    1.0272658343   -1.1264331942
H       -0.4707048005   -1.1548132500    0.7531038074
H       -0.6513103487   -1.0755476169   -0.9990120975
O       -1.8919963581    0.1932731736    0.0077204179
H       -2.0654684127    0.3034618419    0.9678791450
$end

$rem
jobtype               opt
exchange              hf
correlation           rimp2
basis                 6-31g*
basis2                r64g
aux_basis             rimp2-vdz
dual_basis_energy     true
n_frozen_core         fc
mem_static            800
geom_opt_max_cycles   150
$end

$opt
constraint
tors 1 2 7 11 165
tors 2 7 11 12 -105
endconstraint
$end

