$molecule
0 1
C        1.7929715729   -0.3517369530    0.0287331413
C        0.5837480952    0.5600555502    0.2258128112
H        1.5668106758   -1.3691924784    0.3539156875
H        2.6524806709    0.0004393284    0.6017829459
H        2.0872463394   -0.3924482482   -1.0220810330
H        0.3116795036    0.6031776770    1.2814091379
C       -0.6556604965    0.0856867508   -0.5402980563
H        0.8437638429    1.5774913378   -0.0750035637
H       -0.4299806676   -0.8221287483   -1.1061168768
H       -0.9984338313    0.8403292527   -1.2535557663
O       -1.7312380489   -0.1729524731    0.4041068113
H       -2.1345822078   -1.0295249834    0.1458182365
$end

$rem
jobtype               opt
exchange              hf
correlation           rimp2
basis                 6-31g*
basis2                r64g
aux_basis             rimp2-vdz
dual_basis_energy     true
n_frozen_core         fc
mem_static            800
geom_opt_max_cycles   150
$end

$opt
constraint
tors 1 2 7 11 105
tors 2 7 11 12 -135
endconstraint
$end

