$molecule
0 1
C        1.6645897007   -0.4396436365   -0.1351978411
C        0.5981861906    0.5256707241    0.3744578192
H        1.2925813631   -1.4654255621   -0.1159303602
H        2.5664390660   -0.3944797556    0.4777342237
H        1.9442500118   -0.1986666236   -1.1625278240
H        0.3609523298    0.3342089860    1.4221745053
C       -0.7003971668    0.4402130888   -0.4130972623
H        0.9831932809    1.5476156467    0.3153547609
H       -0.5111852781    0.1649920130   -1.4561388256
H       -1.2211436208    1.4036542636   -0.4067601831
O       -1.5260507505   -0.5570952919    0.2397138528
H       -2.3620544655   -0.6040906895   -0.2771111326
$end

$rem
jobtype               opt
exchange              hf
correlation           rimp2
basis                 6-31g*
basis2                r64g
aux_basis             rimp2-vdz
dual_basis_energy     true
n_frozen_core         fc
mem_static            800
geom_opt_max_cycles   150
$end

$opt
constraint
tors 1 2 7 11 90
tors 2 7 11 12 -165
endconstraint
$end

