$molecule
0 1
C        1.8771066622   -0.1341545946    0.1397704014
C        0.5253656048    0.4988962673   -0.1817400149
H        1.8736431076   -0.5543272937    1.1470098812
H        2.6794323845    0.6032040658    0.0845710957
H        2.1181175419   -0.9394329019   -0.5580318968
H        0.3027684150    1.2709561101    0.5579163107
C       -0.6172912560   -0.5046707686   -0.1271947753
H        0.5444597436    0.9916844243   -1.1556856734
H       -0.4057535275   -1.2820612380    0.6151948423
H       -0.7554468298   -0.9975067840   -1.0938494296
O       -1.8167765779    0.2091277606    0.2675149278
H       -2.5736437460   -0.2593950728   -0.1486339114
$end

$rem
jobtype               opt
exchange              hf
correlation           rimp2
basis                 6-31g*
basis2                r64g
aux_basis             rimp2-vdz
dual_basis_energy     true
n_frozen_core         fc
mem_static            800
geom_opt_max_cycles   150
$end

$opt
constraint
tors 1 2 7 11 165
tors 2 7 11 12 150
endconstraint
$end

