$molecule
0 1
C        1.8058535223   -0.1958325023    0.2345668667
C        0.5497385592    0.5448735682   -0.2186941710
H        1.6228053291   -0.7206731860    1.1737454222
H        2.6383457700    0.4928307685    0.3884789230
H        2.1170671353   -0.9341738721   -0.5073635616
H        0.2632433067    1.2786222214    0.5365609722
C       -0.6524670299   -0.3896081780   -0.4178512530
H        0.7604711408    1.1003526360   -1.1360314600
H       -0.3865852324   -1.4118809746   -0.1406051159
H       -0.9789452128   -0.4099939885   -1.4601620237
O       -1.7587541617   -0.0244127278    0.4508763620
H       -2.4270893212    0.4158987540   -0.1169649757
$end

$rem
jobtype               opt
exchange              hf
correlation           rimp2
basis                 6-31g*
basis2                r64g
aux_basis             rimp2-vdz
dual_basis_energy     true
n_frozen_core         fc
mem_static            800
geom_opt_max_cycles   150
$end

$opt
constraint
tors 1 2 7 11 135
tors 2 7 11 12 105
endconstraint
$end

