$molecule
0 1
C        1.5613727571   -0.4921330291   -0.1231394832
C        0.6029608794    0.6127121656    0.3167523213
H        1.1625514449   -1.4833815590    0.1035410220
H        2.5218829402   -0.4070208844    0.3872723725
H        1.7453431825   -0.4412271529   -1.1982355723
H        0.4445607736    0.5781226828    1.3967618098
C       -0.7561236679    0.5337717443   -0.3643545023
H        1.0501192416    1.5848656272    0.0891238782
H       -0.6373377158    0.4250580710   -1.4483569985
H       -1.3335016710    1.4392206035   -0.1769357601
O       -1.5821691899   -0.5298079256    0.1644206615
H       -1.0827642322   -1.3624730746    0.0081856606
$end

$rem
jobtype               opt
exchange              hf
correlation           rimp2
basis                 6-31g*
basis2                r64g
aux_basis             rimp2-vdz
dual_basis_energy     true
n_frozen_core         fc
mem_static            800
geom_opt_max_cycles   150
$end

$opt
constraint
tors 1 2 7 11 75
tors 2 7 11 12 -45
endconstraint
$end

