$molecule
0 1
C        1.8641509075   -0.1253841689   -0.1416456764
C        0.5109002247    0.5152572352    0.1606250946
H        2.1264465179   -0.8705136235    0.6123466969
H        2.6585328089    0.6220694809   -0.1618680059
H        1.8414160440   -0.6231410939   -1.1121287841
H        0.5524156612    1.0848753028    1.0926453447
C       -0.6200122521   -0.5080785784    0.2186196723
H        0.2752837899    1.2229601070   -0.6391975153
H       -0.6997175244   -0.9401927906    1.2216595539
H       -0.4311559983   -1.3225765795   -0.4826779439
O       -1.8997963995    0.0395240042   -0.1838383281
H       -1.8761398784    0.9917312798    0.0579055131
$end

$rem
jobtype               opt
exchange              hf
correlation           rimp2
basis                 6-31g*
basis2                r64g
aux_basis             rimp2-vdz
dual_basis_energy     true
n_frozen_core         fc
mem_static            800
geom_opt_max_cycles   150
$end

$opt
constraint
tors 1 2 7 11 -150
tors 2 7 11 12 -15
endconstraint
$end

