$molecule
0 1
C        1.7411439116   -0.3710210385   -0.1371995493
C        0.5763963012    0.4449188340    0.4181243665
H        1.4566260145   -1.4183875023   -0.2537462576
H        2.6066932951   -0.3280426950    0.5262496629
H        2.0493824246    0.0059284124   -1.1142890367
H        0.3007950454    0.0983042969    1.4150822158
C       -0.6773271812    0.3683182024   -0.4515664900
H        0.8877441863    1.4876103928    0.5197059901
H       -0.4463213434   -0.0238139288   -1.4478058321
H       -1.1223729201    1.3600395724   -0.5782370051
O       -1.6225450483   -0.5027592127    0.2218279645
H       -2.4930036751   -0.3509768243   -0.2101823166
$end

$rem
jobtype               opt
exchange              hf
correlation           rimp2
basis                 6-31g*
basis2                r64g
aux_basis             rimp2-vdz
dual_basis_energy     true
n_frozen_core         fc
mem_static            800
geom_opt_max_cycles   150
$end

$opt
constraint
tors 1 2 7 11 105
tors 2 7 11 12 180
endconstraint
$end

