$molecule
0 1
C        1.8729233115   -0.1429863612   -0.1451340214
C        0.5337345142    0.5304752504    0.1469159130
H        2.1191371522   -0.8893148768    0.6136628378
H        2.6833345373    0.5873327948   -0.1667107972
H        1.8472851475   -0.6460292436   -1.1135221277
H        0.5808996783    1.1000047143    1.0771571702
C       -0.6179783026   -0.4653000343    0.1980370246
H        0.3036607677    1.2417801435   -0.6484797731
H       -0.7526600416   -0.8774135088    1.2032556959
H       -0.4072251551   -1.3002192015   -0.4776334438
O       -1.8268127909    0.2124092724   -0.2317161160
H       -2.3937720649   -0.4716672703   -0.6503535708
$end

$rem
jobtype               opt
exchange              hf
correlation           rimp2
basis                 6-31g*
basis2                r64g
aux_basis             rimp2-vdz
dual_basis_energy     true
n_frozen_core         fc
mem_static            800
geom_opt_max_cycles   150
$end

$opt
constraint
tors 1 2 7 11 -150
tors 2 7 11 12 135
endconstraint
$end

