$molecule
0 1
C        1.8895246290   -0.1231494936   -0.1186220462
C        0.5295941044    0.5073109316    0.1716067104
H        2.1330892864   -0.9022584639    0.6073953588
H        2.6842263672    0.6235889962   -0.0825495523
H        1.8976991511   -0.5765964222   -1.1113213416
H        0.5334956706    1.0235392292    1.1335313513
C       -0.6058305486   -0.5049364258    0.1281353488
H        0.3106361723    1.2600683125   -0.5887687693
H       -0.7524549603   -0.9747428645    1.1049650069
H       -0.3807329064   -1.2989048143   -0.5923659881
O       -1.8050001561    0.1913805648   -0.2976845030
H       -2.5637765149   -0.2719078331    0.1208380557
$end

$rem
jobtype               opt
exchange              hf
correlation           rimp2
basis                 6-31g*
basis2                r64g
aux_basis             rimp2-vdz
dual_basis_energy     true
n_frozen_core         fc
mem_static            800
geom_opt_max_cycles   150
$end

$opt
constraint
tors 1 2 7 11 -150
tors 2 7 11 12 -135
endconstraint
$end

