$molecule
0 1
C        1.8321096699   -0.1448181512   -0.2457594478
C        0.5601766685    0.5295752362    0.2636964507
H        2.1445892564   -0.9502988744    0.4220133642
H        2.6566490810    0.5663569578   -0.3187768985
H        1.6667427967   -0.5743571140   -1.2352497866
H        0.7535907490    0.9962857151    1.2329284704
C       -0.6287001569   -0.4393564507    0.3575740749
H        0.2718062522    1.3289418204   -0.4214074551
H       -0.9595116621   -0.5758255411    1.3905039720
H       -0.3473994144   -1.4210423978   -0.0267326048
O       -1.7414766564   -0.0251597484   -0.4764498326
H       -2.3028700852    0.5539592460    0.0843796115
$end

$rem
jobtype               opt
exchange              hf
correlation           rimp2
basis                 6-31g*
basis2                r64g
aux_basis             rimp2-vdz
dual_basis_energy     true
n_frozen_core         fc
mem_static            800
geom_opt_max_cycles   150
$end

$opt
constraint
tors 1 2 7 11 -120
tors 2 7 11 12 -75
endconstraint
$end

