$molecule
0 1
C        1.8715616714   -0.1316293160   -0.1798922218
C        0.5526044037    0.5125330048    0.2432337343
H        2.1200548892   -0.9842529074    0.4559807033
H        2.6967896577    0.5794500227   -0.1178964613
H        1.8127306520   -0.4900836057   -1.2093351179
H        0.6306150547    0.9401218323    1.2444433699
C       -0.6232609292   -0.4631824749    0.1820583306
H        0.3269862197    1.3422778887   -0.4310796168
H       -0.7700083027   -0.9665431587    1.1383885303
H       -0.4356202649   -1.2356334567   -0.5700906521
O       -1.8733918455    0.2115845864   -0.1081705570
H       -1.9559126791    0.2149461654   -1.0865293038
$end

$rem
jobtype               opt
exchange              hf
correlation           rimp2
basis                 6-31g*
basis2                r64g
aux_basis             rimp2-vdz
dual_basis_energy     true
n_frozen_core         fc
mem_static            800
geom_opt_max_cycles   150
$end

$opt
constraint
tors 1 2 7 11 -165
tors 2 7 11 12 90
endconstraint
$end

