$molecule
0 1
C        1.4253349999   -0.6060048989   -0.0222712127
C        0.7060393472    0.7400971102    0.0044995210
H        1.1865476396   -1.1975262969    0.8605427362
H        2.5053136107   -0.4500364190   -0.0496328315
H        1.1370150279   -1.1893560634   -0.8955037868
H        1.0405461187    1.3035071271    0.8792020543
C       -0.8329608175    0.6252862970    0.0250538743
H        1.0082103737    1.3262960776   -0.8661095555
H       -1.2609004719    1.0974327993   -0.8617923883
H       -1.2447888810    1.1396619540    0.8955909302
O       -1.2755112576   -0.7588645877    0.0143956912
H       -1.7970840651   -0.8943356097    0.8338763799
$end

$rem
jobtype               opt
exchange              hf
correlation           rimp2
basis                 6-31g*
basis2                r64g
aux_basis             rimp2-vdz
dual_basis_energy     true
n_frozen_core         fc
mem_static            800
geom_opt_max_cycles   150
$end

$opt
constraint
tors 1 2 7 11 0
tors 2 7 11 12 105
endconstraint
$end

