$molecule
0 1
C        1.8344474136   -0.1437630028   -0.2041120655
C        0.5250997864    0.5206846849    0.2177091045
H        2.1304376931   -0.9190632942    0.5056172456
H        2.6465877985    0.5826498450   -0.2617345320
H        1.7251854887   -0.6099278696   -1.1844258299
H        0.6557950711    1.0529941318    1.1630555472
C       -0.6366553469   -0.4742602731    0.3174224958
H        0.2568869248    1.2667177363   -0.5347775635
H       -0.8244131459   -0.7544463925    1.3593130147
H       -0.4100565990   -1.3864039903   -0.2356940894
O       -1.8558028042    0.0131030980   -0.2937810184
H       -1.9532750323    0.9438586372    0.0085583080
$end

$rem
jobtype               opt
exchange              hf
correlation           rimp2
basis                 6-31g*
basis2                r64g
aux_basis             rimp2-vdz
dual_basis_energy     true
n_frozen_core         fc
mem_static            800
geom_opt_max_cycles   150
$end

$opt
constraint
tors 1 2 7 11 -150
tors 2 7 11 12 -45
endconstraint
$end

