$molecule
0 1
C        1.8371247361   -0.1422042033   -0.2465299161
C        0.5689633416    0.5027876242    0.3099886605
H        2.1155290608   -1.0285001722    0.3276383754
H        2.6800373401    0.5502276221   -0.2170837209
H        1.6914989923   -0.4500281606   -1.2838936714
H        0.7425317501    0.8610962144    1.3265169147
C       -0.6434240624   -0.4383412480    0.2805349047
H        0.3143076748    1.3812319453   -0.2867026967
H       -0.8990998726   -0.7858950189    1.2818556625
H       -0.4290238568   -1.3223616207   -0.3274011205
O       -1.8368793039    0.2208505617   -0.2153808385
H       -1.8362794163    0.0842632408   -1.1878556878
$end

$rem
jobtype               opt
exchange              hf
correlation           rimp2
basis                 6-31g*
basis2                r64g
aux_basis             rimp2-vdz
dual_basis_energy     true
n_frozen_core         fc
mem_static            800
geom_opt_max_cycles   150
$end

$opt
constraint
tors 1 2 7 11 -150
tors 2 7 11 12 90
endconstraint
$end

