$molecule
0 1
C        1.8810784740   -0.1172060906    0.1029663643
C        0.5056391428    0.5004145649   -0.1402322153
H        1.9297045629   -0.5732101217    1.0933312129
H        2.6675568468    0.6359695563    0.0391922737
H        2.1009304777   -0.8925460911   -0.6337309228
H        0.3226489249    1.2598916198    0.6273046746
C       -0.6117402979   -0.5316520486   -0.0653235402
H        0.4681284757    1.0138642389   -1.1032348613
H       -0.4361239280   -1.2007397992    0.7853386719
H       -0.6518114459   -1.1414971929   -0.9681541923
O       -1.9226293444    0.0667774279    0.0529272372
H       -1.8302808238    0.7744720207    0.7291275338
$end

$rem
jobtype               opt
exchange              hf
correlation           rimp2
basis                 6-31g*
basis2                r64g
aux_basis             rimp2-vdz
dual_basis_energy     true
n_frozen_core         fc
mem_static            800
geom_opt_max_cycles   150
$end

$opt
constraint
tors 1 2 7 11 165
tors 2 7 11 12 -60
endconstraint
$end

