$molecule
0 1
C       -1.7150659974    0.3560351132    0.1834254538
C       -0.5730532708   -0.3957846923   -0.4971187188
H       -2.0169920245   -0.1552880483    1.0987058772
H       -2.5887708676    0.4258145431   -0.4667670512
H       -1.4107079000    1.3697142126    0.4515434303
H       -0.9132231815   -1.4049959830   -0.7432319584
C        0.6911055684   -0.4853723447    0.3674679445
H       -0.3235600277    0.0704481012   -1.4549134498
H        1.1026308377   -1.4973520608    0.3406416725
H        0.4587082148   -0.2476639969    1.4087659500
O        1.7578570796    0.4044160048   -0.0545482970
H        1.4246478615    0.8927471030   -0.8367905027
$end

$rem
jobtype               opt
exchange              hf
correlation           rimp2
basis                 6-31g*
basis2                r64g
aux_basis             rimp2-vdz
dual_basis_energy     true
n_frozen_core         fc
mem_static            800
geom_opt_max_cycles   150
$end

$opt
constraint
tors 1 2 7 11 -120
tors 2 7 11 12 0
endconstraint
$end

