$molecule
0 1
C        1.8811254728   -0.1358403203    0.1345125938
C        0.5298265849    0.5225038545   -0.1370016783
H        1.8743223786   -0.6296762188    1.1073188010
H        2.6859306905    0.6006823798    0.1339666234
H        2.1163691588   -0.8873843935   -0.6221351602
H        0.3174027893    1.2334221792    0.6657074300
C       -0.6163397978   -0.4850198608   -0.1652374362
H        0.5570720869    1.0902606453   -1.0709460433
H       -0.4303494490   -1.2918999225    0.5446108717
H       -0.7209067823   -0.9309820136   -1.1603207712
O       -1.8745702319    0.0858636187    0.2666433477
H       -1.9434403373    0.9555553936   -0.1879503289
$end

$rem
jobtype               opt
exchange              hf
correlation           rimp2
basis                 6-31g*
basis2                r64g
aux_basis             rimp2-vdz
dual_basis_energy     true
n_frozen_core         fc
mem_static            800
geom_opt_max_cycles   150
$end

$opt
constraint
tors 1 2 7 11 150
tors 2 7 11 12 30
endconstraint
$end

