$molecule
0 1
C        1.8698354145   -0.1323921200   -0.1614194790
C        0.5353789069    0.5315926942    0.1730271537
H        2.1216818981   -0.9094491942    0.5638097449
H        2.6832736706    0.5948433198   -0.1634357716
H        1.8319892478   -0.5972696254   -1.1484429756
H        0.5929704308    1.0641038267    1.1241328085
C       -0.6240107051   -0.4635869321    0.2004435796
H        0.3040714558    1.2790846367   -0.5890225300
H       -0.7690505195   -0.8751055929    1.2010708401
H       -0.4156554307   -1.3015150715   -0.4707212405
O       -1.8723954915    0.1736707879   -0.1796470295
H       -2.0671514340   -0.1261451988   -1.0929898811
$end

$rem
jobtype               opt
exchange              hf
correlation           rimp2
basis                 6-31g*
basis2                r64g
aux_basis             rimp2-vdz
dual_basis_energy     true
n_frozen_core         fc
mem_static            800
geom_opt_max_cycles   150
$end

$opt
constraint
tors 1 2 7 11 -135
tors 2 7 11 12 105
endconstraint
$end

