$molecule
0 1
C        1.5338637937   -0.5266217946    0.1025559134
C        0.6369848251    0.6346879606   -0.3123584394
H        1.6737442299   -0.5416662765    1.1857074332
H        2.5180302170   -0.4460215364   -0.3617990885
H        1.0863529189   -1.4739510648   -0.1944668110
H        1.0905708176    1.5893121487   -0.0298738311
C       -0.7412868107    0.5575304047    0.3141348716
H        0.5204818843    0.6459798980   -1.3986630409
H       -1.3588381687    1.4077422879    0.0051096721
H       -0.6580161017    0.5765987048    1.4063449927
O       -1.3476559532   -0.6843039777   -0.1197848651
H       -2.1173865441   -0.8379617234    0.4723623566
$end

$rem
jobtype               opt
exchange              hf
correlation           rimp2
basis                 6-31g*
basis2                r64g
aux_basis             rimp2-vdz
dual_basis_energy     true
n_frozen_core         fc
mem_static            800
geom_opt_max_cycles   150
$end

$opt
constraint
tors 1 2 7 11 -60
tors 2 7 11 12 180
endconstraint
$end

