$molecule
0 1
C        1.8827304511   -0.1167060426    0.0961195566
C        0.5052019335    0.5002301489   -0.1360394935
H        1.9387456159   -0.5722736202    1.0861509777
H        2.6678951222    0.6372208508    0.0259093112
H        2.0967128103   -0.8918078869   -0.6424449802
H        0.3299404019    1.2590462492    0.6342751735
C       -0.6110295295   -0.5313621541   -0.0501377127
H        0.4610819428    1.0130633327   -1.0994561521
H       -0.4318577276   -1.1893039262    0.8079574249
H       -0.6479042783   -1.1516068106   -0.9467506206
O       -1.9240694395    0.0635992157    0.0787917538
H       -1.7900285678    0.9128745239    0.5539588027
$end

$rem
jobtype               opt
exchange              hf
correlation           rimp2
basis                 6-31g*
basis2                r64g
aux_basis             rimp2-vdz
dual_basis_energy     true
n_frozen_core         fc
mem_static            800
geom_opt_max_cycles   150
$end

$opt
constraint
tors 1 2 7 11 150
tors 2 7 11 12 -30
endconstraint
$end

