$molecule
0 1
C        1.7928884125   -0.2071458240   -0.2339857610
C        0.5423652403    0.5623487334    0.1867585534
H        2.1090746103   -0.8978771610    0.5501406228
H        2.6250901424    0.4681801630   -0.4396283365
H        1.5972138562   -0.7893066332   -1.1359709632
H        0.7652935667    1.1758332769    1.0633338876
C       -0.6559697798   -0.3578490910    0.4682000393
H        0.2569853235    1.2476560317   -0.6146668591
H       -0.9578905318   -0.3030940293    1.5190904753
H       -0.4077716908   -1.3967844628    0.2502800843
O       -1.7925746787   -0.0833830818   -0.3860885198
H       -2.0404591351    0.8510015117   -0.2042582672
$end

$rem
jobtype               opt
exchange              hf
correlation           rimp2
basis                 6-31g*
basis2                r64g
aux_basis             rimp2-vdz
dual_basis_energy     true
n_frozen_core         fc
mem_static            800
geom_opt_max_cycles   150
$end

$opt
constraint
tors 1 2 7 11 -120
tors 2 7 11 12 -45
endconstraint
$end

