$molecule
0 1
C        1.8934985270   -0.1201560149   -0.1126515733
C        0.5308464148    0.5081730971    0.1698790433
H        2.1367417224   -0.8953988740    0.6175952323
H        2.6862850457    0.6286346366   -0.0775835732
H        1.9057763534   -0.5782048882   -1.1031819437
H        0.5299996698    1.0277339643    1.1303063668
C       -0.6027572854   -0.5074759203    0.1225713332
H        0.3137626023    1.2581777883   -0.5936348866
H       -0.7452645029   -0.9871400705    1.0944043408
H       -0.3742978330   -1.2940473086   -0.6037095518
O       -1.8148271674    0.1658828148   -0.3092940840
H       -2.5365550852   -0.1366099657    0.2832078191
$end

$rem
jobtype               opt
exchange              hf
correlation           rimp2
basis                 6-31g*
basis2                r64g
aux_basis             rimp2-vdz
dual_basis_energy     true
n_frozen_core         fc
mem_static            800
geom_opt_max_cycles   150
$end

$opt
constraint
tors 1 2 7 11 -135
tors 2 7 11 12 -135
endconstraint
$end

