$molecule
0 1
C       -1.7117382931    0.3515058479    0.1928990643
C       -0.5795871404   -0.3993863331   -0.5054597986
H       -2.0062908836   -0.1648947601    1.1078333885
H       -2.5916906185    0.4290049098   -0.4478876029
H       -1.4065296117    1.3640294164    0.4665335332
H       -0.9270119237   -1.4066993016   -0.7494372429
C        0.6950668879   -0.4922545754    0.3416892098
H       -0.3293252099    0.0672363713   -1.4617211812
H        1.1378033165   -1.4870256889    0.2831149849
H        0.4662443842   -0.2886243461    1.3932166349
O        1.7457388542    0.4025512175   -0.1035731786
H        1.2928021258    1.1785931397   -0.5008818197
$end

$rem
jobtype               opt
exchange              hf
correlation           rimp2
basis                 6-31g*
basis2                r64g
aux_basis             rimp2-vdz
dual_basis_energy     true
n_frozen_core         fc
mem_static            800
geom_opt_max_cycles   150
$end

$opt
constraint
tors 1 2 7 11 -120
tors 2 7 11 12 30
endconstraint
$end

