$molecule
0 1
C        1.7985039486   -0.1904943108   -0.2812003713
C        0.5697435355    0.5441254025    0.2506980707
H        2.1059900800   -0.9865146468    0.4001785427
H        2.6442146268    0.4885141731   -0.4032165085
H        1.5879934109   -0.6424572790   -1.2525516394
H        0.8139572704    1.0158462393    1.2051923206
C       -0.6507458883   -0.3683711493    0.4119287966
H        0.2836829095    1.3447191285   -0.4329492334
H       -0.9991015167   -0.3919146252    1.4481960003
H       -0.4004692693   -1.3936612302    0.1266651382
O       -1.7327694743    0.1289722823   -0.4230532047
H       -2.1164136620   -0.6490285866   -0.8820261931
$end

$rem
jobtype               opt
exchange              hf
correlation           rimp2
basis                 6-31g*
basis2                r64g
aux_basis             rimp2-vdz
dual_basis_energy     true
n_frozen_core         fc
mem_static            800
geom_opt_max_cycles   150
$end

$opt
constraint
tors 1 2 7 11 -120
tors 2 7 11 12 120
endconstraint
$end

