$molecule
0 1
C        1.8591065846   -0.1190688853    0.1814847915
C        0.5192282319    0.4832699914   -0.2366952824
H        1.8163594509   -0.4714077210    1.2134563607
H        2.6622282534    0.6156073878    0.1076183832
H        2.1258984252   -0.9686109245   -0.4505769640
H        0.2910272072    1.3154928059    0.4369491495
C       -0.6259544979   -0.5264588953   -0.1517204308
H        0.5752934952    0.9098653898   -1.2401151694
H       -0.3984354926   -1.2713415119    0.6199424583
H       -0.7680526145   -1.0565195356   -1.0934025600
O       -1.9044055000    0.0826523073    0.1413487539
H       -1.7326466751    0.7217412848    0.8680266678
$end

$rem
jobtype               opt
exchange              hf
correlation           rimp2
basis                 6-31g*
basis2                r64g
aux_basis             rimp2-vdz
dual_basis_energy     true
n_frozen_core         fc
mem_static            800
geom_opt_max_cycles   150
$end

$opt
constraint
tors 1 2 7 11 165
tors 2 7 11 12 -45
endconstraint
$end

