$molecule
0 1
C        1.8754192131   -0.1485377899    0.1510811539
C        0.5355610412    0.5136085708   -0.1615937181
H        1.8543928359   -0.6099532625    1.1399536586
H        2.6867218323    0.5809353656    0.1366757410
H        2.1161454552   -0.9267876974   -0.5768123911
H        0.3088995568    1.2547427947    0.6075734006
C       -0.6164392767   -0.4800495532   -0.1694413732
H        0.5768919383    1.0471011385   -1.1130557248
H       -0.4160369607   -1.2913284488    0.5395119332
H       -0.7523801789   -0.9273743013   -1.1596979657
O       -1.8060032560    0.2374913159    0.2401095461
H       -2.5395818578   -0.4181635547    0.2296253459
$end

$rem
jobtype               opt
exchange              hf
correlation           rimp2
basis                 6-31g*
basis2                r64g
aux_basis             rimp2-vdz
dual_basis_energy     true
n_frozen_core         fc
mem_static            800
geom_opt_max_cycles   150
$end

$opt
constraint
tors 1 2 7 11 150
tors 2 7 11 12 165
endconstraint
$end

