$molecule
0 1
C        1.8935627087   -0.1294943443   -0.1065299090
C        0.5397352966    0.5267943998    0.1567965311
H        2.0970426451   -0.9213730757    0.6176432014
H        2.7041515692    0.5976110759   -0.0400357657
H        1.9216752337   -0.5739687665   -1.1032787407
H        0.5275184299    1.0268724000    1.1269509341
C       -0.6083088966   -0.4720558858    0.0910597860
H        0.3591793142    1.2989697858   -0.5957758364
H       -0.6513558851   -1.0759009223    0.9987334736
H       -0.4706529476   -1.1545569637   -0.7534016469
O       -1.8919921589    0.1932648023   -0.0076304703
H       -2.0654111889    0.3037872810   -0.9677603685
$end

$rem
jobtype               opt
exchange              hf
correlation           rimp2
basis                 6-31g*
basis2                r64g
aux_basis             rimp2-vdz
dual_basis_energy     true
n_frozen_core         fc
mem_static            800
geom_opt_max_cycles   150
$end

$opt
constraint
tors 1 2 7 11 -165
tors 2 7 11 12 75
endconstraint
$end

