$molecule
0 1
C        1.4495372989   -0.5682780757   -0.0193748119
C        0.6700453189    0.7339561901    0.1435875263
H        1.0572054268   -1.3315717581    0.6506110444
H        2.5040433954   -0.4146947415    0.2137242766
H        1.3934535647   -0.9482676774   -1.0428695490
H        0.7798012150    1.0654438374    1.1788833137
C       -0.8246640787    0.5944002516   -0.1811377658
H        1.0979115658    1.5206553578   -0.4829722039
H       -1.0063024520    0.8425776575   -1.2319619876
H       -1.4221863864    1.2736426312    0.4259098571
O       -1.3538597821   -0.7249376684    0.0919501846
H       -1.0208855337   -1.2994823568   -0.6321458388
$end

$rem
jobtype               opt
exchange              hf
correlation           rimp2
basis                 6-31g*
basis2                r64g
aux_basis             rimp2-vdz
dual_basis_energy     true
n_frozen_core         fc
mem_static            800
geom_opt_max_cycles   150
$end

$opt
constraint
tors 1 2 7 11 45
tors 2 7 11 12 -75
endconstraint
$end

