$molecule
0 1
C        1.7712151660   -0.3367538415   -0.1127324354
C        0.5557095538    0.4196894181    0.4200873431
H        1.5433385377   -1.3957404890   -0.2522280895
H        2.6166622784   -0.2641479074    0.5734651965
H        2.0884361957    0.0641339936   -1.0772333398
H        0.2708148925    0.0326433498    1.4011282048
C       -0.6706854338    0.3178222646   -0.5013819355
H        0.8201504870    1.4680024631    0.5756097974
H       -0.4209115250   -0.2367812785   -1.4125078958
H       -1.0282975645    1.3019966410   -0.8020669222
O       -1.8150744082   -0.2897710269    0.1447575613
H       -1.5216400967   -1.1907845287    0.4092102482
$end

$rem
jobtype               opt
exchange              hf
correlation           rimp2
basis                 6-31g*
basis2                r64g
aux_basis             rimp2-vdz
dual_basis_energy     true
n_frozen_core         fc
mem_static            800
geom_opt_max_cycles   150
$end

$opt
constraint
tors 1 2 7 11 135
tors 2 7 11 12 -60
endconstraint
$end

