$molecule
0 1
C        1.8958936285   -0.1352911216   -0.0693302326
C        0.5312101624    0.5255509820    0.1088822336
H        2.0905374393   -0.8649534923    0.7199228895
H        2.6966481301    0.6051632547   -0.0421632061
H        1.9522539315   -0.6556720881   -1.0273009231
H        0.4887967967    1.0890620853    1.0429553767
C       -0.6040311576   -0.4804154992    0.0810429573
H        0.3564015857    1.2388553356   -0.6996073957
H       -0.6281196597   -1.0593922456    1.0092307729
H       -0.4714925652   -1.1837432504   -0.7484215073
O       -1.8402800877    0.2540647590   -0.1028304042
H       -2.5446097424   -0.2636594604    0.3455279620
$end

$rem
jobtype               opt
exchange              hf
correlation           rimp2
basis                 6-31g*
basis2                r64g
aux_basis             rimp2-vdz
dual_basis_energy     true
n_frozen_core         fc
mem_static            800
geom_opt_max_cycles   150
$end

$opt
constraint
tors 1 2 7 11 180
tors 2 7 11 12 -150
endconstraint
$end

