$molecule
0 1
C        1.5197119953   -0.5025974207   -0.1335413295
C        0.6122453839    0.6558571121    0.2787641341
H        1.1822355491   -1.4578134638    0.2738384256
H        2.5351146797   -0.3455530563    0.2330775928
H        1.5641970908   -0.5976364687   -1.2205715116
H        0.5474565273    0.7037301156    1.3690704497
C       -0.7943543124    0.5655413819   -0.2961157046
H        1.0536198043    1.5992278419   -0.0542163937
H       -0.7439142569    0.6058422712   -1.3904856596
H       -1.4053088346    1.4021596342    0.0453251057
O       -1.5094992251   -0.6274337366    0.1007757557
H       -0.8330388841   -1.3253804702    0.2348480042
$end

$rem
jobtype               opt
exchange              hf
correlation           rimp2
basis                 6-31g*
basis2                r64g
aux_basis             rimp2-vdz
dual_basis_energy     true
n_frozen_core         fc
mem_static            800
geom_opt_max_cycles   150
$end

$opt
constraint
tors 1 2 7 11 45
tors 2 7 11 12 -30
endconstraint
$end

