$molecule
0 1
C        1.5234402988   -0.5121423205    0.0939944566
C        0.6476669115    0.6871972010   -0.2544713301
H        1.5805540793   -0.6564810176    1.1757494996
H        2.5403846878   -0.3805698618   -0.2782909493
H        1.1188948774   -1.4207035628   -0.3528105997
H        1.0836608573    1.6065552348    0.1480766130
C       -0.7714365907    0.5483393748    0.2747812538
H        0.5976276456    0.8029154566   -1.3393789798
H       -1.3815152285    1.3982991844   -0.0343988318
H       -0.7747870001    0.5130332748    1.3687264413
O       -1.4303725484   -0.6226430456   -0.2699204787
H       -1.2349693635   -1.3593183183    0.3492803803
$end

$rem
jobtype               opt
exchange              hf
correlation           rimp2
basis                 6-31g*
basis2                r64g
aux_basis             rimp2-vdz
dual_basis_energy     true
n_frozen_core         fc
mem_static            800
geom_opt_max_cycles   150
$end

$opt
constraint
tors 1 2 7 11 -45
tors 2 7 11 12 90
endconstraint
$end

