$molecule
0 1
C        1.8833975196   -0.1180273069   -0.0727262225
C        0.5030199095    0.5150292200    0.0866281029
H        2.0966436526   -0.8080530862    0.7461036870
H        2.6656454847    0.6420947507   -0.0816959259
H        1.9438265101   -0.6769530967   -1.0078298530
H        0.4638880733    1.1273050684    0.9919160639
C       -0.6087922296   -0.5222304954    0.1263955870
H        0.3143880230    1.1797359146   -0.7615863027
H       -0.5946259568   -1.0602201440    1.0794310782
H       -0.4721526655   -1.2520189261   -0.6747834285
O       -1.9242004739    0.0541654446   -0.0709403633
H       -1.8221582766    1.0226769444    0.0542214076
$end

$rem
jobtype               opt
exchange              hf
correlation           rimp2
basis                 6-31g*
basis2                r64g
aux_basis             rimp2-vdz
dual_basis_energy     true
n_frozen_core         fc
mem_static            800
geom_opt_max_cycles   150
$end

$opt
constraint
tors 1 2 7 11 -165
tors 2 7 11 12 0
endconstraint
$end

