$molecule
0 1
C        1.6018733697   -0.4834718722    0.1100623263
C        0.6170843694    0.5831360611   -0.3575073259
H        1.8450724472   -0.3486825388    1.1659895987
H        2.5329110271   -0.4389953620   -0.4573588025
H        1.1708750250   -1.4770661825   -0.0165586578
H        1.0457072896    1.5775877029   -0.2016886172
C       -0.7103827964    0.5074994755    0.3714518350
H        0.4174527752    0.4840677680   -1.4264297467
H       -1.2960681001    1.4191103822    0.2106809011
H       -0.5518154404    0.3902222735    1.4485674042
O       -1.4255326407   -0.6320129023   -0.1689400059
H       -2.1584294653   -0.8235170781    0.4583175216
$end

$rem
jobtype               opt
exchange              hf
correlation           rimp2
basis                 6-31g*
basis2                r64g
aux_basis             rimp2-vdz
dual_basis_energy     true
n_frozen_core         fc
mem_static            800
geom_opt_max_cycles   150
$end

$opt
constraint
tors 1 2 7 11 -90
tors 2 7 11 12 165
endconstraint
$end

