$molecule
0 1
C        1.8048956891   -0.1556317396   -0.2872762235
C        0.5637701709    0.5057685758    0.3072084721
H        2.1171335668   -1.0152480845    0.3094081268
H        2.6427932279    0.5424131054   -0.3298022206
H        1.6053023677   -0.5049672179   -1.3020529174
H        0.7912526764    0.8790406629    1.3080959600
C       -0.6458426595   -0.4296283109    0.3552026229
H        0.2751886144    1.3695318345   -0.2938600095
H       -0.9987781852   -0.5818404574    1.3803243634
H       -0.3884853379   -1.4110474501   -0.0562449790
O       -1.6971027088    0.1760629946   -0.4404008221
H       -2.3623649221   -0.5303878204   -0.6022094809
$end

$rem
jobtype               opt
exchange              hf
correlation           rimp2
basis                 6-31g*
basis2                r64g
aux_basis             rimp2-vdz
dual_basis_energy     true
n_frozen_core         fc
mem_static            800
geom_opt_max_cycles   150
$end

$opt
constraint
tors 1 2 7 11 -120
tors 2 7 11 12 180
endconstraint
$end

