$molecule
0 1
C        1.7291080397   -0.3839936510    0.1147528815
C        0.5989553243    0.4998145244   -0.4099723630
H        2.0089469145   -0.0931005674    1.1290581165
H        2.6188658197   -0.3083595605   -0.5126700662
H        1.4286738775   -1.4340316945    0.1387827716
H        0.9398474498    1.5384800895   -0.4138041335
C       -0.6885710696    0.3923842203    0.4139910403
H        0.3502262654    0.2473711372   -1.4419396350
H       -1.1425226140    1.3755666928    0.5427701433
H       -0.4917999862   -0.0135025776    1.4103733718
O       -1.7073085242   -0.3873927734   -0.2652350996
H       -1.5743773257   -1.3199684485    0.0143406840
$end

$rem
jobtype               opt
exchange              hf
correlation           rimp2
basis                 6-31g*
basis2                r64g
aux_basis             rimp2-vdz
dual_basis_energy     true
n_frozen_core         fc
mem_static            800
geom_opt_max_cycles   150
$end

$opt
constraint
tors 1 2 7 11 -120
tors 2 7 11 12 90
endconstraint
$end

