$molecule
0 1
C        1.8931078553   -0.1445807250    0.0794710985
C        0.5301804878    0.5275314824   -0.0687326085
H        1.9508346266   -0.7020919000    1.0162839421
H        2.6962643545    0.5938071620    0.0783158115
H        2.0828864663   -0.8433139601   -0.7384280545
H        0.3529647511    1.1965716532    0.7756738059
C       -0.6045528395   -0.4790654415   -0.0952153811
H        0.4941770087    1.1390737530   -0.9725023870
H       -0.4606629224   -1.2173525119    0.7011644752
H       -0.6356431498   -1.0162985776   -1.0494529422
O       -1.8374674650    0.2486264562    0.1225288293
H       -2.5189789977   -0.4242313819    0.3450085847
$end

$rem
jobtype               opt
exchange              hf
correlation           rimp2
basis                 6-31g*
basis2                r64g
aux_basis             rimp2-vdz
dual_basis_energy     true
n_frozen_core         fc
mem_static            800
geom_opt_max_cycles   150
$end

$opt
constraint
tors 1 2 7 11 150
tors 2 7 11 12 -165
endconstraint
$end

