$molecule
0 1
C        1.4499854907   -0.5450970521    0.0799651300
C        0.6510990693    0.7363379986   -0.1608065448
H        1.2611709678   -0.9588538299    1.0724953825
H        2.5185632445   -0.3415840818   -0.0017188578
H        1.2237513448   -1.3146414622   -0.6606526923
H        1.0498694451    1.5427450727    0.4583880829
C       -0.8535951074    0.6185808285    0.1215582628
H        0.8040036624    1.0415646953   -1.1994863705
H       -1.4097926755    1.3281471456   -0.4956048028
H       -1.0456473283    0.8669012354    1.1690011071
O       -1.4251776654   -0.6949461033   -0.0919880992
H       -0.7017784307   -1.2830862230   -0.3907603644
$end

$rem
jobtype               opt
exchange              hf
correlation           rimp2
basis                 6-31g*
basis2                r64g
aux_basis             rimp2-vdz
dual_basis_energy     true
n_frozen_core         fc
mem_static            800
geom_opt_max_cycles   150
$end

$opt
constraint
tors 1 2 7 11 -30
tors 2 7 11 12 15
endconstraint
$end

