$molecule
0 1
C        1.8501627206   -0.1306778871    0.2031757286
C        0.5350071379    0.4877537137   -0.2660002498
H        1.7595141315   -0.4849018507    1.2313658403
H        2.6632098049    0.5961743944    0.1662437363
H        2.1365505463   -0.9809336000   -0.4198857523
H        0.2712693025    1.3164768973    0.3936470567
C       -0.6331536547   -0.4997663465   -0.2170931233
H        0.6447798192    0.9060331232   -1.2691238047
H       -0.3804980245   -1.3462178392    0.4273365374
H       -0.8634797121   -0.9008203244   -1.2067367117
O       -1.8027790225    0.1338780060    0.3690584524
H       -2.5131274839    0.1049695845   -0.3070314993
$end

$rem
jobtype               opt
exchange              hf
correlation           rimp2
basis                 6-31g*
basis2                r64g
aux_basis             rimp2-vdz
dual_basis_energy     true
n_frozen_core         fc
mem_static            800
geom_opt_max_cycles   150
$end

$opt
constraint
tors 1 2 7 11 120
tors 2 7 11 12 120
endconstraint
$end

