$molecule
0 1
C        1.5249784637   -0.4949004010    0.1141242477
C        0.6276793819    0.6737621921   -0.2895679476
H        1.5488001997   -0.6160732286    1.1995093167
H        2.5482747841   -0.3328779942   -0.2274497125
H        1.1899726135   -1.4360351117   -0.3262116715
H        1.0600592368    1.6088848438    0.0776053286
C       -0.7913600989    0.5659179448    0.2516981625
H        0.5864203429    0.7471369126   -1.3790871198
H       -1.4022579972    1.4007513579   -0.0920825436
H       -0.7694569909    0.5893143030    1.3478600515
O       -1.4897213932   -0.6181378100   -0.1946694052
H       -0.8553567330   -1.3613855654   -0.0962541962
$end

$rem
jobtype               opt
exchange              hf
correlation           rimp2
basis                 6-31g*
basis2                r64g
aux_basis             rimp2-vdz
dual_basis_energy     true
n_frozen_core         fc
mem_static            800
geom_opt_max_cycles   150
$end

$opt
constraint
tors 1 2 7 11 -60
tors 2 7 11 12 60
endconstraint
$end

