$molecule
0 1
C        1.7467427237   -0.2471518342   -0.3025495310
C        0.5804968953    0.5683037577    0.2495177221
H        2.0674122809   -1.0037636598    0.4162039822
H        2.6054511857    0.3888726018   -0.5245447852
H        1.4572880743   -0.7565032404   -1.2237221494
H        0.8942669627    1.0612254180    1.1731379769
C       -0.6642217270   -0.2750653284    0.5157892431
H        0.2943247105    1.3567571007   -0.4483237137
H       -1.1134141872   -0.0280268843    1.4833604018
H       -0.4175470244   -1.3415415112    0.5246066164
O       -1.6141301226    0.0149349236   -0.5420338491
H       -2.2946659183   -0.6946242267   -0.5057634069
$end

$rem
jobtype               opt
exchange              hf
correlation           rimp2
basis                 6-31g*
basis2                r64g
aux_basis             rimp2-vdz
dual_basis_energy     true
n_frozen_core         fc
mem_static            800
geom_opt_max_cycles   150
$end

$opt
constraint
tors 1 2 7 11 -105
tors 2 7 11 12 180
endconstraint
$end

