$molecule
0 1
C        1.8707571600   -0.1285836927   -0.1232882611
C        0.5114499495    0.5193104485    0.1330624000
H        2.1287856121   -0.8378499347    0.6661798496
H        2.6624610401    0.6206450338   -0.1690252317
H        1.8618782662   -0.6699737751   -1.0705434574
H        0.5388646900    1.1236928433    1.0438533785
C       -0.6176050360   -0.5050389198    0.2099794529
H        0.2764524798    1.1945949740   -0.6930485613
H       -0.7045664065   -0.9262109886    1.2172013494
H       -0.4254919789   -1.3279519247   -0.4793908025
O       -1.8867281916    0.0298828118   -0.2341761093
H       -2.0813615035    0.7872056089    0.3634692910
$end

$rem
jobtype               opt
exchange              hf
correlation           rimp2
basis                 6-31g*
basis2                r64g
aux_basis             rimp2-vdz
dual_basis_energy     true
n_frozen_core         fc
mem_static            800
geom_opt_max_cycles   150
$end

$opt
constraint
tors 1 2 7 11 -135
tors 2 7 11 12 -60
endconstraint
$end

