$molecule
0 1
C        1.7452093652   -0.3583733322   -0.1455065218
C        0.5723899686    0.4290643495    0.4338101912
H        1.4684533459   -1.4025034382   -0.3023918376
H        2.6074061329   -0.3343169535    0.5232376760
H        2.0555878215    0.0562597644   -1.1065270692
H        0.2939133767    0.0414680222    1.4146541090
C       -0.6771364884    0.3784408192   -0.4462086569
H        0.8772414042    1.4687337604    0.5779940625
H       -0.4391312034    0.0235109090   -1.4542499569
H       -1.1203766786    1.3736165093   -0.5408633311
O       -1.6340657743   -0.5211314044    0.1747860193
H       -2.5258976702   -0.1941486775   -0.0754359725
$end

$rem
jobtype               opt
exchange              hf
correlation           rimp2
basis                 6-31g*
basis2                r64g
aux_basis             rimp2-vdz
dual_basis_energy     true
n_frozen_core         fc
mem_static            800
geom_opt_max_cycles   150
$end

$opt
constraint
tors 1 2 7 11 105
tors 2 7 11 12 135
endconstraint
$end

