$molecule
0 1
C        1.6413077743   -0.4241855956    0.1566340122
C        0.5858859704    0.5108752896   -0.4299620053
H        1.9207953438   -0.0989351759    1.1597440306
H        2.5436293812   -0.4416605720   -0.4568317618
H        1.2639737837   -1.4462582585    0.2308841858
H        0.9893201721    1.5272599121   -0.4480603353
C       -0.7187008845    0.5150019971    0.3631692037
H        0.3665087492    0.2601087518   -1.4720648406
H       -1.2143133015    1.4851586439    0.2739405877
H       -0.5244366419    0.3318449796    1.4231020514
O       -1.6721912631   -0.4798878731   -0.0943301478
H       -1.2471681207   -0.9519608159   -0.8419798866
$end

$rem
jobtype               opt
exchange              hf
correlation           rimp2
basis                 6-31g*
basis2                r64g
aux_basis             rimp2-vdz
dual_basis_energy     true
n_frozen_core         fc
mem_static            800
geom_opt_max_cycles   150
$end

$opt
constraint
tors 1 2 7 11 -90
tors 2 7 11 12 -15
endconstraint
$end

