$molecule
0 1
C        1.5850338278   -0.4868745731   -0.1025262142
C        0.6327883886    0.6309780750    0.3106936104
H        1.1696540511   -1.4600217755    0.1645780937
H        2.5531354567   -0.3897477672    0.3912524036
H        1.7558064092   -0.4725221869   -1.1812126255
H        0.4885477523    0.6338580224    1.3927114956
C       -0.7343725573    0.5053461186   -0.3408831895
H        1.0634273018    1.5999775920    0.0395845093
H       -0.6431465026    0.3366413253   -1.4174018152
H       -1.3116818068    1.4204885824   -0.1935244795
O       -1.5009440927   -0.5569680104    0.2876051973
H       -1.4972829491   -1.3148774655   -0.3358552329
$end

$rem
jobtype               opt
exchange              hf
correlation           rimp2
basis                 6-31g*
basis2                r64g
aux_basis             rimp2-vdz
dual_basis_energy     true
n_frozen_core         fc
mem_static            800
geom_opt_max_cycles   150
$end

$opt
constraint
tors 1 2 7 11 90
tors 2 7 11 12 -105
endconstraint
$end

