$molecule
0 1
C        1.8761979870   -0.1410825847    0.1461223009
C        0.5299218891    0.5046769981   -0.1728881523
H        1.8649010578   -0.5778947142    1.1462253980
H        2.6827135803    0.5927912360    0.1077478455
H        2.1168037937   -0.9358088108   -0.5637997752
H        0.3055147891    1.2643043948    0.5789402883
C       -0.6170611626   -0.4942238454   -0.1453395253
H        0.5589022420    1.0142000424   -1.1378201831
H       -0.4113393558   -1.2882490572    0.5815185167
H       -0.7558652064   -0.9651295515   -1.1236315491
O       -1.8079206175    0.2276125811    0.2548331572
H       -2.5710751059   -0.3531301846    0.0361417202
$end

$rem
jobtype               opt
exchange              hf
correlation           rimp2
basis                 6-31g*
basis2                r64g
aux_basis             rimp2-vdz
dual_basis_energy     true
n_frozen_core         fc
mem_static            800
geom_opt_max_cycles   150
$end

$opt
constraint
tors 1 2 7 11 150
tors 2 7 11 12 180
endconstraint
$end

