$molecule
0 1
C        1.6592797542   -0.4298360304    0.0842661278
C        0.5745922455    0.5445399719   -0.3664405158
H        1.9658244010   -0.2121760174    1.1086955464
H        2.5433476469   -0.3672238796   -0.5524839642
H        1.2887576912   -1.4559465902    0.0530624563
H        0.9603242095    1.5657400899   -0.2917894537
C       -0.7036536377    0.4325968920    0.4649234170
H        0.3254437272    0.3860673308   -1.4190091409
H       -1.1935458407    1.4085148462    0.5503298981
H       -0.4905521165    0.0762881575    1.4726803648
O       -1.6406284978   -0.5264982777   -0.0821004270
H       -1.8524302017   -0.1983590642   -0.9844960894
$end

$rem
jobtype               opt
exchange              hf
correlation           rimp2
basis                 6-31g*
basis2                r64g
aux_basis             rimp2-vdz
dual_basis_energy     true
n_frozen_core         fc
mem_static            800
geom_opt_max_cycles   150
$end

$opt
constraint
tors 1 2 7 11 -90
tors 2 7 11 12 -45
endconstraint
$end

