$molecule
0 1
C        1.8252440956   -0.0968112176   -0.2647713367
C        0.5546140689    0.4426074055    0.3887961779
H        2.1071893501   -1.0615904892    0.1615349665
H        2.6639594116    0.5869085195   -0.1244253457
H        1.6789787405   -0.2369060993   -1.3373561116
H        0.7286517316    0.6453497512    1.4475573525
C       -0.6461805046   -0.4984590034    0.2146948780
H        0.3042141730    1.4071296779   -0.0622299829
H       -0.8950984189   -1.0139987178    1.1418287490
H       -0.4115405473   -1.2611198126   -0.5368677458
O       -1.8625525921    0.1842029998   -0.1704914525
H       -1.6011439415    0.8112250812   -0.8807547670
$end

$rem
jobtype               opt
exchange              hf
correlation           rimp2
basis                 6-31g*
basis2                r64g
aux_basis             rimp2-vdz
dual_basis_energy     true
n_frozen_core         fc
mem_static            800
geom_opt_max_cycles   150
$end

$opt
constraint
tors 1 2 7 11 -135
tors 2 7 11 12 60
endconstraint
$end

