$molecule
0 1
C        1.5972365645   -0.4697321609   -0.1326382343
C        0.6023709352    0.5791663104    0.3547918635
H        1.1803007203   -1.4714204557   -0.0203577887
H        2.5308135671   -0.4230954377    0.4305248825
H        1.8320582175   -0.3158337992   -1.1876120303
H        0.4046926525    0.4637596872    1.4219401598
C       -0.7242243395    0.5032262463   -0.3808774109
H        1.0265475545    1.5777409897    0.2097610661
H       -0.5703503608    0.3985526511   -1.4593215332
H       -1.3019778230    1.4157994316   -0.2111692923
O       -1.4621216890   -0.6484438974    0.1113131192
H       -2.3845185207   -0.3484591078    0.2583002740
$end

$rem
jobtype               opt
exchange              hf
correlation           rimp2
basis                 6-31g*
basis2                r64g
aux_basis             rimp2-vdz
dual_basis_energy     true
n_frozen_core         fc
mem_static            800
geom_opt_max_cycles   150
$end

$opt
constraint
tors 1 2 7 11 75
tors 2 7 11 12 120
endconstraint
$end

