$molecule
0 1
C        1.7537427304   -0.1636654774   -0.3449252305
C        0.5780085956    0.4902297474    0.3763911039
H        2.0770869214   -1.0667072819    0.1764437731
H        2.6082330881    0.5127768143   -0.4038095495
H        1.4732362491   -0.4426667415   -1.3623036838
H        0.8828081060    0.7539402216    1.3921921719
C       -0.6616196754   -0.3999687860    0.4281439184
H        0.2887743549    1.4187912435   -0.1181469610
H       -1.1141627465   -0.3879356962    1.4250758789
H       -0.4108254211   -1.4384749247    0.1871469891
O       -1.6064659616    0.1272716636   -0.5375762269
H       -2.3986099376   -0.4550641795   -0.4932648105
$end

$rem
jobtype               opt
exchange              hf
correlation           rimp2
basis                 6-31g*
basis2                r64g
aux_basis             rimp2-vdz
dual_basis_energy     true
n_frozen_core         fc
mem_static            800
geom_opt_max_cycles   150
$end

$opt
constraint
tors 1 2 7 11 -105
tors 2 7 11 12 -165
endconstraint
$end

