$molecule
0 1
C        1.4043202934   -0.5934220095    0.0458137395
C        0.6780242572    0.7413418445   -0.1087754044
H        1.2022327839   -1.0454001036    1.0170242195
H        2.4814994393   -0.4476765313   -0.0496860199
H        1.0990295233   -1.3067198255   -0.7192866785
H        1.0834196671    1.4695301736    0.5971393543
C       -0.8475084817    0.6504031870    0.0920841887
H        0.8918706954    1.1356216611   -1.1062489435
H       -1.3712239954    1.2857809543   -0.6287340695
H       -1.1180379720    0.9935223592    1.0904627282
O       -1.3788828108   -0.6943871630    0.0517997741
H       -1.1551549117   -1.0507361715   -0.8374340047
$end

$rem
jobtype               opt
exchange              hf
correlation           rimp2
basis                 6-31g*
basis2                r64g
aux_basis             rimp2-vdz
dual_basis_energy     true
n_frozen_core         fc
mem_static            800
geom_opt_max_cycles   150
$end

$opt
constraint
tors 1 2 7 11 -15
tors 2 7 11 12 -75
endconstraint
$end

