$molecule
0 1
C        1.8930592786   -0.1307901828   -0.0301865243
C        0.5113574974    0.5185816423   -0.0001290308
H        2.0625823302   -0.7346342094    0.8637223543
H        2.6804906676    0.6226863317   -0.0783093500
H        2.0012208543   -0.7829725466   -0.8994429492
H        0.4195033355    1.1858982134    0.8592403812
C       -0.6026942899   -0.5100597197    0.0721014577
H        0.3607091266    1.1297524808   -0.8928932208
H       -0.5163128837   -1.1058039672    0.9850125772
H       -0.5417440223   -1.1961826497   -0.7771174293
O       -1.8888846130    0.1629634337    0.0979608588
H       -2.3857022729   -0.1470906480   -0.6887011866
$end

$rem
jobtype               opt
exchange              hf
correlation           rimp2
basis                 6-31g*
basis2                r64g
aux_basis             rimp2-vdz
dual_basis_energy     true
n_frozen_core         fc
mem_static            800
geom_opt_max_cycles   150
$end

$opt
constraint
tors 1 2 7 11 180
tors 2 7 11 12 105
endconstraint
$end

