$molecule
0 1
C        1.5958542096   -0.4922614668    0.0974008982
C        0.6203354198    0.5942393736   -0.3420756166
H        1.8337698573   -0.3927307275    1.1585218348
H        2.5306200388   -0.4368211266   -0.4628157879
H        1.1588911669   -1.4783120690   -0.0638277835
H        1.0532495196    1.5813324587   -0.1538495244
C       -0.7123962921    0.5021636330    0.3762208229
H        0.4269563907    0.5287555555   -1.4148070752
H       -1.2954228369    1.4190080194    0.2403281920
H       -0.5588748943    0.3540205497    1.4494938266
O       -1.4397700354   -0.6148507692   -0.1984233805
H       -2.0120489303   -0.9756516154    0.5141893326
$end

$rem
jobtype               opt
exchange              hf
correlation           rimp2
basis                 6-31g*
basis2                r64g
aux_basis             rimp2-vdz
dual_basis_energy     true
n_frozen_core         fc
mem_static            800
geom_opt_max_cycles   150
$end

$opt
constraint
tors 1 2 7 11 -75
tors 2 7 11 12 135
endconstraint
$end

