$molecule
0 1
C        1.7306757703   -0.4034533194   -0.0856156503
C        0.5989391853    0.5187720323    0.3609158720
H        1.4222854826   -1.4493528891   -0.0278499485
H        2.6154833782   -0.2798504820    0.5412819017
H        2.0192245541   -0.1927783279   -1.1172836816
H        0.3402211786    0.3400900508    1.4055570410
C       -0.6773807989    0.3423351362   -0.4615417876
H        0.9381307929    1.5556541288    0.2908768242
H       -0.4680694280   -0.1875228158   -1.3944628129
H       -1.1156680515    1.3099872444   -0.7217480414
O       -1.6506557516   -0.3899563388    0.3337604703
H       -2.0417423928   -1.0735848869   -0.2521288099
$end

$rem
jobtype               opt
exchange              hf
correlation           rimp2
basis                 6-31g*
basis2                r64g
aux_basis             rimp2-vdz
dual_basis_energy     true
n_frozen_core         fc
mem_static            800
geom_opt_max_cycles   150
$end

$opt
constraint
tors 1 2 7 11 105
tors 2 7 11 12 -120
endconstraint
$end

