$molecule
0 1
C        1.8175082938   -0.1244554866   -0.2810361300
C        0.5597702462    0.4755872016    0.3429865530
H        2.1340608301   -1.0221931469    0.2540640926
H        2.6462510161    0.5853623688   -0.2598065551
H        1.6352654839   -0.3999894812   -1.3213157075
H        0.7662343817    0.7787394463    1.3716356170
C       -0.6397773097   -0.4734032382    0.3026776413
H        0.2692243309    1.3771150635   -0.1988719031
H       -0.9987712598   -0.7010216113    1.3109121538
H       -0.3730123693   -1.4217352722   -0.1765003353
O       -1.6870313715    0.1792007458   -0.4601668686
H       -2.5150437521   -0.3183194654   -0.2742232324
$end

$rem
jobtype               opt
exchange              hf
correlation           rimp2
basis                 6-31g*
basis2                r64g
aux_basis             rimp2-vdz
dual_basis_energy     true
n_frozen_core         fc
mem_static            800
geom_opt_max_cycles   150
$end

$opt
constraint
tors 1 2 7 11 -120
tors 2 7 11 12 -150
endconstraint
$end

