$molecule
0 1
C        1.8783464015   -0.1266019985    0.1263350902
C        0.5206096624    0.5010657863   -0.1813601127
H        1.8820926212   -0.5572525969    1.1291140505
H        2.6759586213    0.6160697835    0.0749707717
H        2.1207926625   -0.9232903253   -0.5807395802
H        0.2982584579    1.2658230663    0.5656142624
C       -0.6162415558   -0.5123613462   -0.1234342948
H        0.5329051735    1.0020802165   -1.1519164586
H       -0.3982996153   -1.2706490169    0.6339094558
H       -0.7417508206   -1.0288966863   -1.0781803434
O       -1.8462334512    0.1455962696    0.2823212986
H       -2.4925678776    0.0187952170   -0.4448435147
$end

$rem
jobtype               opt
exchange              hf
correlation           rimp2
basis                 6-31g*
basis2                r64g
aux_basis             rimp2-vdz
dual_basis_energy     true
n_frozen_core         fc
mem_static            800
geom_opt_max_cycles   150
$end

$opt
constraint
tors 1 2 7 11 150
tors 2 7 11 12 135
endconstraint
$end

