$molecule
0 1
C        1.7469128793   -0.3584793405   -0.0947347332
C        0.5652143311    0.4720009394    0.3997901474
H        1.4762625753   -1.4140333607   -0.1571406015
H        2.6043591265   -0.2681828496    0.5744117468
H        2.0614749831   -0.0322117495   -1.0878978451
H        0.2809256219    0.1672788308    1.4082273719
C       -0.6739325339    0.3342301814   -0.4938534416
H        0.8671572226    1.5214227764    0.4585949877
H       -0.4167907966   -0.1496939501   -1.4382577443
H       -1.0996674027    1.3116276993   -0.7328864048
O       -1.6838553489   -0.5045429711    0.1304679647
H       -2.3867043554    0.1006826226    0.4499759299
$end

$rem
jobtype               opt
exchange              hf
correlation           rimp2
basis                 6-31g*
basis2                r64g
aux_basis             rimp2-vdz
dual_basis_energy     true
n_frozen_core         fc
mem_static            800
geom_opt_max_cycles   150
$end

$opt
constraint
tors 1 2 7 11 90
tors 2 7 11 12 105
endconstraint
$end

