$molecule
0 1
C        1.6395611635   -0.4188180022    0.1609808473
C        0.5914014751    0.5210246625   -0.4326931434
H        1.9057447316   -0.1037776499    1.1711339883
H        2.5496596996   -0.4296016623   -0.4409590837
H        1.2702051434   -1.4454160741    0.2210400184
H        0.9971337114    1.5365621296   -0.4359537248
C       -0.7236153956    0.5159274016    0.3421718620
H        0.3780319280    0.2740566034   -1.4757315590
H       -1.2465366303    1.4666559731    0.2314740329
H       -0.5354267519    0.3549578615    1.4090889764
O       -1.6601293894   -0.4779700827   -0.1451648367
H       -1.1155868890   -1.2143695553   -0.5016164804
$end

$rem
jobtype               opt
exchange              hf
correlation           rimp2
basis                 6-31g*
basis2                r64g
aux_basis             rimp2-vdz
dual_basis_energy     true
n_frozen_core         fc
mem_static            800
geom_opt_max_cycles   150
$end

$opt
constraint
tors 1 2 7 11 -105
tors 2 7 11 12 30
endconstraint
$end

