$molecule
0 1
C        1.8059112082   -0.1232494125    0.2897400640
C        0.5533392832    0.4451874924   -0.3733556707
H        1.6205534910   -0.3303795795    1.3451473250
H        2.6404557937    0.5769549522    0.2241753666
H        2.1158618667   -1.0560564186   -0.1859686865
H        0.2693426949    1.3804069348    0.1115625098
C       -0.6544410175   -0.4932694938   -0.2743754602
H        0.7644026828    0.6832109541   -1.4184566876
H       -0.3952114160   -1.4023771538    0.2767124939
H       -0.9980157524   -0.7981286502   -1.2657049855
O       -1.7262307744    0.1798580313    0.4414588843
H       -2.5518748604    0.0124612533   -0.0618414206
$end

$rem
jobtype               opt
exchange              hf
correlation           rimp2
basis                 6-31g*
basis2                r64g
aux_basis             rimp2-vdz
dual_basis_energy     true
n_frozen_core         fc
mem_static            800
geom_opt_max_cycles   150
$end

$opt
constraint
tors 1 2 7 11 105
tors 2 7 11 12 135
endconstraint
$end

